!Date: 4/18/2025 at 3:52:51 PM
!Mini-Circuits
!S2P DATA File Format
!Type: CABLE
!Model: CBN-1.5FT-SMSM+
!S/N: 25C_01
!DUT PIN OUT: INPUT-PORT 1, OUTPUT-PORT 2
!TEST CONDITIONS: Z:50 OHM SYSTEM, INPUT POWER = -10 dBm, TEMP:25°C
!RUN#: YH0952_QN2513090
!REMARKS: Calibrated using 40 GHz Ecal and performed two port de-embedding. 
!TESTED ON: Network Analyzer PNA-X N5242A - 423 4 ports (COM/DCOM);  Serial number: 74302
# Hz  S  dB  R  50
!Frequency    S11 dB        S11 Deg       S21 dB        S21 Deg       S12 dB        S12 Deg       S22 dB        S22 Deg       
10000000      -43.0553300   59.3024800    -0.0127954    -7.6016150    -0.0085163    -7.6343770    -40.1958200   71.8980300    
20000000      -40.8331500   63.3813600    -0.0059369    -14.7524300   -0.0177037    -14.7747300   -39.8463000   56.8471100    
30000000      -38.9878200   49.8931400    -0.0146529    -21.9776600   -0.0215015    -21.9752800   -38.4725700   46.6819600    
40000000      -37.5887100   39.7449700    -0.0254666    -29.1576800   -0.0313033    -29.1444400   -37.5259700   39.1156000    
50000000      -36.6787500   31.7589400    -0.0343417    -36.3586100   -0.0391990    -36.3656100   -36.7075100   31.2351800    
60000000      -36.1332200   22.9306400    -0.0423832    -43.5649900   -0.0468347    -43.5678800   -36.1433300   24.0180600    
70000000      -35.5267900   17.6330100    -0.0475162    -50.7802300   -0.0498881    -50.7696100   -35.4000100   17.7555800    
80000000      -35.0866200   10.5758100    -0.0519761    -57.9654000   -0.0546632    -57.9718300   -35.1337100   12.3246300    
90000000      -34.8885100   3.2706530     -0.0557253    -65.1734800   -0.0567884    -65.1766400   -34.8767700   5.8863090     
100000000     -34.9089800   -2.7440990    -0.0583715    -72.3851500   -0.0599680    -72.3888200   -34.8899800   0.2834878     
150000000     -35.6862800   -33.9112900   -0.0686509    -108.4189000  -0.0721561    -108.4119000  -35.6722900   -30.5970100   
200000000     -40.1617500   -67.2099100   -0.0805377    -144.4492000  -0.0817652    -144.4543000  -40.3949200   -51.3211300   
250000000     -55.6511200   65.2843900    -0.0878633    179.5048000   -0.0918443    179.5141000   -46.5066900   19.6559000    
300000000     -39.5177500   43.6025500    -0.0954791    143.4758000   -0.0999234    143.4801000   -38.1203600   22.0495200    
350000000     -35.9350500   11.7168800    -0.1077597    107.4516000   -0.1070926    107.4592000   -35.3714600   -5.8645080    
400000000     -36.8055400   -19.6230300   -0.1129908    71.4356600    -0.1133946    71.4266600    -36.4208900   -35.6070100   
450000000     -43.4254300   -36.2333200   -0.1194817    35.3897900    -0.1209848    35.4052800    -42.8686900   -58.8676100   
500000000     -45.3641700   47.3155500    -0.1260813    -0.6320695    -0.1283523    -0.6274671    -47.3779000   52.3872000    
550000000     -37.4825600   33.7920500    -0.1324453    -36.6443600   -0.1317953    -36.6435100   -37.6093400   36.1067200    
600000000     -35.2091400   9.1460920     -0.1391844    -72.6551800   -0.1378748    -72.6658300   -34.9634200   3.5056720     
650000000     -36.1716700   -21.7332300   -0.1425985    -108.6811000  -0.1450486    -108.6874000  -35.4400600   -25.5030600   
700000000     -39.3379800   -42.4186200   -0.1508190    -144.7144000  -0.1503806    -144.7076000  -38.7115700   -58.4602200   
750000000     -47.1956800   -10.2822000   -0.1521078    179.2744000   -0.1562203    179.2543000   -54.3928700   -44.8546800   
800000000     -39.3676800   22.5488900    -0.1593291    143.2332000   -0.1631885    143.2559000   -40.3989200   41.0691400    
850000000     -35.7205500   3.0710510     -0.1642769    107.2193000   -0.1661000    107.2376000   -35.7783600   9.3019550     
900000000     -35.7224700   -23.0808500   -0.1684441    71.2240600    -0.1699300    71.2093400    -35.4715700   -22.6317700   
950000000     -39.6569500   -45.1355000   -0.1737482    35.2121500    -0.1720684    35.1986100    -38.5181800   -49.6579600   
1000000000    -47.9891400   -26.9283100   -0.1757648    -0.8092079    -0.1776664    -0.8182746    -48.6684600   -52.4702500   
1100000000    -37.1299200   5.4068730     -0.1846510    -72.8342700   -0.1870445    -72.8519600   -36.6461700   5.4296160     
1200000000    -40.4370800   -35.7599000   -0.1941396    -144.8548000  -0.1972241    -144.8523000  -39.6029500   -54.1908400   
1300000000    -40.6216800   24.5622300    -0.2019097    143.1205000   -0.2049933    143.1292000   -41.8656600   34.4201600    
1400000000    -36.5535700   -22.4648600   -0.2084020    71.0996500    -0.2146246    71.1068700    -35.8170600   -25.0803500   
1500000000    -44.6002500   -30.3142300   -0.2174631    -0.9163935    -0.2209393    -0.9106641    -49.2864900   -94.3265400   
1600000000    -37.1080600   -7.2096720    -0.2255063    -72.9161800   -0.2286976    -72.8797000   -37.6537100   18.7677200    
1700000000    -38.0309500   -52.8286600   -0.2355468    -144.8932000  -0.2336746    -144.9154000  -37.9105300   -46.9283600   
1800000000    -42.7282600   2.3824610     -0.2379269    143.0791000   -0.2440253    143.0829000   -44.5286800   41.2723700    
1900000000    -34.7337400   -31.3150700   -0.2486463    71.0620700    -0.2548613    71.0756100    -34.7353700   -14.7271500   
2000000000    -45.4153500   -63.0848000   -0.2529937    -0.9465255    -0.2561478    -0.9005052    -45.4554700   -49.8682900   
2100000000    -37.2173900   -15.6469300   -0.2597024    -72.9279600   -0.2637405    -72.9076300   -37.9949800   27.0302000    
2200000000    -39.4450100   -71.0640000   -0.2653213    -144.8988000  -0.2680556    -144.9079000  -38.4843000   -26.8132200   
2300000000    -41.1703300   20.6307100    -0.2694565    143.0771000   -0.2770915    143.0956000   -40.6161300   33.2129900    
2400000000    -34.2366600   -38.9150500   -0.2777295    71.0524800    -0.2861645    71.0981100    -34.3012900   -6.1731480    
2500000000    -45.3301500   -76.6618000   -0.2861194    -0.9276215    -0.2852961    -0.9184211    -42.2404400   -35.1751400   
2600000000    -33.9681400   1.7039870     -0.2889336    -72.9238400   -0.2919376    -72.9186600   -33.9905700   12.9745800    
2700000000    -33.6732000   -62.4728700   -0.2943076    -144.9115000  -0.2994761    -144.9034000  -33.5732200   -39.9324200   
2800000000    -41.4243200   30.5939100    -0.3014154    143.0559000   -0.3053888    143.0942000   -40.5689400   20.2639100    
2900000000    -31.2274900   -26.2414000   -0.3094248    71.0596500    -0.3123985    71.1019100    -31.2635200   -18.4571900   
3000000000    -38.5540100   -77.9767600   -0.3143417    -0.9251395    -0.3143956    -0.9029716    -38.5509100   -72.7590100   
3100000000    -34.3588900   -3.3108540    -0.3181063    -72.9149900   -0.3218096    -72.9164000   -34.8803300   16.3368900    
3200000000    -32.2627200   -60.2394800   -0.3286451    -144.8987000  -0.3294200    -144.8975000  -32.5517500   -46.8235500   
3300000000    -44.5824100   -16.0271100   -0.3292047    143.0801000   -0.3322048    143.1115000   -51.4563900   7.3444190     
3400000000    -31.6520000   -39.8160800   -0.3397301    71.0717700    -0.3387021    71.0827200    -32.3148200   -7.1560100    
3500000000    -37.3870900   -95.6160200   -0.3407595    -0.9077997    -0.3435152    -0.9072696    -37.3238100   -70.4703700   
3600000000    -35.6828100   2.6420220     -0.3446923    -72.9095500   -0.3495371    -72.8930900   -36.2642200   5.6758370     
3700000000    -31.7685100   -53.6957600   -0.3525957    -144.8919000  -0.3559519    -144.8539000  -32.1324000   -57.2330800   
3800000000    -41.5759400   -48.7702400   -0.3545920    143.1046000   -0.3583560    143.1181000   -52.3368500   -162.2333000  
3900000000    -32.1217700   -31.8697100   -0.3626104    71.1026200    -0.3664715    71.1258200    -32.4363900   -19.5108300   
4000000000    -35.3983700   -70.2442900   -0.3645784    -0.8901421    -0.3697870    -0.8685063    -35.8096700   -95.1925300   
4100000000    -33.6679500   -14.9555200   -0.3687065    -72.8890600   -0.3727109    -72.8618300   -35.0429100   24.3818900    
4200000000    -30.3826000   -62.9093600   -0.3743379    -144.8667000  -0.3807666    -144.8516000  -30.3730500   -50.6792400   
4300000000    -39.5455900   -33.2596000   -0.3785337    143.1335000   -0.3810334    143.1459000   -62.4144800   131.2174000   
4400000000    -29.0411500   -37.0888300   -0.3844468    71.1346200    -0.3902677    71.1527600    -29.2364400   -12.7250700   
4500000000    -32.7511400   -86.9888200   -0.3872003    -0.8476120    -0.3912868    -0.8041370    -32.6475400   -83.6210900   
4600000000    -32.2177700   -14.8861600   -0.3915547    -72.8802900   -0.3985898    -72.8305600   -33.6096000   22.6514400    
4700000000    -28.6053600   -62.9737400   -0.4006188    -144.8208000  -0.4044559    -144.8008000  -28.4596500   -49.1182200   
4800000000    -37.1864000   -66.6970100   -0.3995850    143.1717000   -0.4041871    143.1954000   -43.1008900   -153.0567000  
4900000000    -28.6895800   -46.5516100   -0.4056545    71.1661100    -0.4148918    71.1795700    -29.2817500   -1.7883140    
5000000000    -30.8687700   -89.2899100   -0.4102127    -0.8148971    -0.4162429    -0.7837873    -31.0734900   -84.4895700   
5100000000    -32.8208300   -34.9486100   -0.4140306    -72.8249000   -0.4169107    -72.7852600   -35.4961400   47.8460300    
5200000000    -27.2100300   -71.6461700   -0.4226986    -144.7729000  -0.4296352    -144.7471000  -27.4034100   -40.4528700   
5300000000    -35.1388500   -97.0206700   -0.4200756    143.2298000   -0.4267147    143.2726000   -37.4686500   -125.9200000  
5400000000    -29.8196900   -47.0979900   -0.4285742    71.1929800    -0.4325817    71.2434000    -30.6026000   -3.1351200    
5500000000    -28.8101200   -97.0055200   -0.4364666    -0.7835873    -0.4401176    -0.7132964    -29.0099200   -79.2399400   
5600000000    -37.1436500   -52.7169800   -0.4331614    -72.7538100   -0.4391609    -72.7281600   -43.4034000   47.7987200    
5700000000    -27.8690600   -73.2126700   -0.4434539    -144.7514000  -0.4463275    -144.6961000  -28.1035900   -39.8611200   
5800000000    -33.4621500   -123.1756000  -0.4435348    143.2730000   -0.4485732    143.3347000   -33.9135400   -108.5881000  
5900000000    -30.8422900   -44.2248700   -0.4474550    71.2546700    -0.4549162    71.3040900    -30.9313200   -6.4909300    
6000000000    -29.0600900   -103.4444000  -0.4526391    -0.7047096    -0.4592703    -0.6419841    -29.0848200   -73.3150400   
6100000000    -42.2658700   -37.0060200   -0.4528163    -72.7052000   -0.4591578    -72.6516300   -45.2992200   0.6278297     
6200000000    -27.6530100   -70.2052600   -0.4643987    -144.7009000  -0.4674914    -144.6551000  -27.6329000   -42.9066700   
6300000000    -32.8566700   -129.5264000  -0.4648677    143.3390000   -0.4662267    143.3945000   -32.5166900   -107.6752000  
6400000000    -31.0676600   -42.4878000   -0.4701058    71.3140000    -0.4718016    71.3391300    -31.7321500   -9.1354970    
6500000000    -27.4215000   -100.5580000  -0.4761557    -0.6394772    -0.4812191    -0.5899927    -27.3420600   -81.3758500   
6600000000    -42.2114600   -83.6478200   -0.4734713    -72.6400000   -0.4766679    -72.6073800   -66.3203200   -132.8698000  
6700000000    -26.7039200   -73.7043700   -0.4874076    -144.6317000  -0.4904591    -144.5895000  -27.0586100   -42.4567700   
6800000000    -29.4229600   -126.8964000  -0.4862148    143.4125000   -0.4870123    143.4695000   -29.6500500   -120.4457000  
6900000000    -32.5922100   -56.4566300   -0.4890838    71.3722600    -0.4891128    71.4138300    -33.9298500   -0.8995480    
7000000000    -26.1879600   -106.2553000  -0.4982761    -0.5725369    -0.5016543    -0.5262839    -26.2908800   -77.0947200   
7100000000    -37.2449400   -141.3807000  -0.4915680    -72.5463900   -0.4943167    -72.5061100   -37.9527200   -147.7948000  
7200000000    -28.4591400   -78.4903800   -0.5010282    -144.5508000  -0.5048434    -144.4985000  -28.6951600   -40.7000000   
7300000000    -28.7428300   -138.1227000  -0.5030611    143.5127000   -0.5061070    143.5508000   -28.7434600   -109.4409000  
7400000000    -35.0645000   -55.8438600   -0.5018155    71.4986700    -0.5052642    71.5218100    -36.0139700   -12.3339600   
7500000000    -27.3135600   -111.5303000  -0.5124400    -0.4404043    -0.5158694    -0.3961688    -27.2770900   -71.6144900   
7600000000    -37.8767700   -162.3472000  -0.5084263    -72.4914900   -0.5128577    -72.4240600   -36.9832200   -125.1185000  
7700000000    -28.0898000   -78.0323600   -0.5177290    -144.4478000  -0.5227010    -144.4174000  -28.0835500   -41.2499800   
7800000000    -28.4988700   -143.2025000  -0.5228698    143.5866000   -0.5258788    143.6514000   -28.4425700   -102.8462000  
7900000000    -36.8549700   -49.4933700   -0.5205002    71.5677600    -0.5243115    71.5846300    -36.8906200   -28.6188500   
8000000000    -26.6046600   -108.9259000  -0.5315225    -0.4050902    -0.5348700    -0.3763702    -26.4619400   -74.4047000   
8100000000    -37.3479100   -172.0541000  -0.5277980    -72.3899200   -0.5291682    -72.3214000   -35.9165300   -117.5393000  
8200000000    -27.7819600   -69.6951400   -0.5361787    -144.4084000  -0.5416155    -144.3817000  -27.7573900   -48.2274200   
8300000000    -27.2914500   -140.0707000  -0.5407743    143.6813000   -0.5419088    143.7153000   -27.1613000   -108.6125000  
8400000000    -37.0729000   -44.4989700   -0.5375159    71.6451200    -0.5384758    71.6700400    -36.5535600   -33.5019500   
8500000000    -25.7251100   -109.4019000  -0.5514535    -0.3423557    -0.5523424    -0.2987037    -25.7817300   -72.5686800   
8600000000    -33.6541400   -178.1175000  -0.5462682    -72.2977800   -0.5489971    -72.2695500   -32.7948500   -126.8617000  
8700000000    -28.4101200   -72.8315100   -0.5537151    -144.3229000  -0.5549744    -144.3161000  -28.4925200   -46.4810100   
8800000000    -26.5293000   -148.5854000  -0.5572179    143.7418000   -0.5620674    143.7618000   -26.4066900   -100.5528000  
8900000000    -44.0701700   -5.4126080    -0.5507317    71.6833100    -0.5556575    71.7340900    -38.6850100   -67.7421500   
9000000000    -26.5591400   -105.7470000  -0.5662584    -0.2889306    -0.5701642    -0.2431159    -26.5889700   -77.6778200   
9100000000    -31.9415700   174.6771000   -0.5627887    -72.2540800   -0.5641102    -72.2066100   -31.2018000   -126.4247000  
9200000000    -29.4176200   -67.2219800   -0.5640079    -144.2599000  -0.5700461    -144.2440000  -29.3362300   -53.4054800   
9300000000    -26.8531000   -147.7053000  -0.5763224    143.7793000   -0.5777367    143.8504000   -26.3844200   -101.9951000  
9400000000    -43.2601100   29.2233700    -0.5727613    71.7794000    -0.5729979    71.8285700    -36.4954900   -81.8925600   
9500000000    -26.1764500   -104.1182000  -0.5799053    -0.2119300    -0.5857565    -0.1689223    -25.8586200   -80.0993600   
9600000000    -31.8494500   166.2862000   -0.5760980    -72.1645600   -0.5821329    -72.0990100   -30.6244000   -118.3090000  
9700000000    -29.5077600   -59.2570500   -0.5862266    -144.2253000  -0.5868565    -144.1583000  -28.8226400   -62.3766100   
9800000000    -27.1504900   -142.3666000  -0.5893528    143.8815000   -0.5925124    143.9088000   -26.6232400   -106.8709000  
9900000000    -40.5740500   6.3550790     -0.5838400    71.8514300    -0.5887936    71.8970000    -35.4272700   -69.4727200   
10000000000   -26.0980500   -101.1020000  -0.5928379    -0.1627816    -0.6020558    -0.0973057    -25.8084900   -82.9151000   
10100000000   -30.9917500   179.3834000   -0.5937961    -72.1011100   -0.5957524    -72.0327100   -30.1853300   -130.8938000  
10200000000   -29.9066900   -61.3439100   -0.5962444    -144.1316000  -0.5995163    -144.0914000  -29.2811900   -60.8198000   
10300000000   -26.0970000   -141.8064000  -0.6024730    143.9132000   -0.6091883    143.9828000   -25.9425500   -107.8660000  
10400000000   -46.6449800   60.8621800    -0.6003547    71.9318000    -0.6066555    72.0275800    -36.9424700   -97.6964300   
10500000000   -26.6801000   -98.5629700   -0.6115299    -0.0829062    -0.6129003    -0.0388906    -26.3434800   -86.0800900   
10600000000   -30.8498500   176.5072000   -0.6077737    -72.0010600   -0.6086242    -71.9367000   -29.8822700   -125.1783000  
10700000000   -30.0735300   -60.7680500   -0.6070575    -144.0374000  -0.6134158    -143.9584000  -29.2349000   -60.6119000   
10800000000   -27.3389900   -141.4503000  -0.6157672    144.0202000   -0.6214988    144.1040000   -26.9728200   -105.7167000  
10900000000   -44.7918100   60.6533000    -0.6142309    72.0300600    -0.6162844    72.0846500    -35.7189800   -94.4407900   
11000000000   -27.2325000   -97.1463900   -0.6211514    0.0433295     -0.6278606    0.1035580     -26.9867800   -83.8450500   
11100000000   -34.1018000   177.2616000   -0.6174582    -71.9221700   -0.6221317    -71.8318000   -32.3476700   -119.7921000  
11200000000   -30.2322700   -50.4548300   -0.6251741    -143.9379000  -0.6302854    -143.8615000  -29.6822000   -69.8247000   
11300000000   -27.8746000   -129.8252000  -0.6321444    144.1153000   -0.6347519    144.1666000   -27.5070800   -113.6112000  
11400000000   -41.9395400   24.7134100    -0.6242849    72.0403800    -0.6289173    72.1121300    -35.7710600   -84.9868600   
11500000000   -27.3599300   -86.3288200   -0.6331607    0.0746296     -0.6383438    0.1730945     -27.6132200   -93.3265500   
11600000000   -33.1931400   -164.1315000  -0.6346069    -71.8702400   -0.6363820    -71.7807100   -32.1670200   -139.8183000  
11700000000   -29.8406900   -50.3103200   -0.6400179    -143.8763000  -0.6431596    -143.8159000  -29.7036700   -68.3787100   
11800000000   -27.8557600   -127.5813000  -0.6419125    144.1537000   -0.6454388    144.2094000   -27.6632600   -116.8638000  
11900000000   -46.3409000   32.3717600    -0.6393112    72.1260200    -0.6430608    72.2102700    -39.7449600   -94.8720700   
12000000000   -26.9136500   -84.1488800   -0.6526454    0.1279481     -0.6525521    0.2335782     -26.8395700   -95.2541400   
12100000000   -32.9761000   -158.5173000  -0.6457521    -71.7964200   -0.6501330    -71.7293700   -32.0516900   -143.3155000  
12200000000   -31.6526100   -48.3719100   -0.6497415    -143.8246000  -0.6540168    -143.7593000  -31.1863300   -66.1895100   
12300000000   -27.5791800   -121.8251000  -0.6581494    144.1888000   -0.6571630    144.2815000   -27.3258900   -123.2961000  
12400000000   -45.1362100   41.0787700    -0.6538976    72.2025100    -0.6540036    72.2960100    -36.8784400   -111.0108000  
12500000000   -27.6063400   -83.7911200   -0.6649876    0.2073602     -0.6678506    0.2921510     -27.1709100   -97.1886200   
12600000000   -33.1880100   -158.7942000  -0.6578885    -71.7475900   -0.6630047    -71.6746100   -31.7457900   -144.2760000  
12700000000   -31.8612500   -43.7210500   -0.6646430    -143.7767000  -0.6609275    -143.7142000  -31.1352600   -79.7436800   
12800000000   -28.7968200   -118.7898000  -0.6688793    144.3067000   -0.6671910    144.3812000   -28.0492600   -124.6819000  
12900000000   -43.0615900   3.2321800     -0.6676435    72.2934600    -0.6710775    72.3776900    -37.8452900   -84.5863100   
13000000000   -28.3567300   -75.7798500   -0.6744299    0.2866349     -0.6802089    0.3641274     -27.9760700   -102.6835000  
13100000000   -34.8351400   -141.2057000  -0.6730888    -71.6692500   -0.6735780    -71.6196000   -34.4159400   -149.0997000  
13200000000   -29.7607900   -43.0472800   -0.6799386    -143.6898000  -0.6789978    -143.6061000  -29.3843900   -67.8974500   
13300000000   -27.1630800   -111.4252000  -0.6822720    144.3687000   -0.6879371    144.4655000   -27.1992400   -133.3450000  
13400000000   -47.4137000   -57.0848100   -0.6772057    72.3548700    -0.6817553    72.4335200    -41.0800200   -90.6484800   
13500000000   -26.0485400   -70.6656500   -0.6920301    0.3509337     -0.6935838    0.4128485     -25.9264600   -107.9532000  
13600000000   -30.0327700   -128.7875000  -0.6853436    -71.5613200   -0.6883951    -71.4944200   -31.8577000   -175.8516000  
13700000000   -29.9331200   -62.3459100   -0.6867972    -143.6406000  -0.6919330    -143.5417000  -30.5321400   -57.8315700   
13800000000   -26.3487400   -114.1535000  -0.6978925    144.4491000   -0.7050335    144.5472000   -26.3788600   -128.6107000  
13900000000   -41.7019200   -88.4845000   -0.6912178    72.4959500    -0.6949840    72.5503600    -44.7667200   -65.9992400   
14000000000   -26.7034300   -89.3849300   -0.6982691    0.4325241     -0.7041765    0.5069185     -26.7733700   -87.9355900   
14100000000   -30.5913300   -139.8368000  -0.6971387    -71.5241700   -0.7009106    -71.4217400   -31.5394900   -160.7479000  
14200000000   -30.3159700   -53.8781400   -0.7036723    -143.5910000  -0.7106034    -143.4687000  -30.0820600   -64.6558800   
14300000000   -26.8227600   -114.1421000  -0.7101135    144.4856000   -0.7116837    144.5675000   -27.1263600   -125.6610000  
14400000000   -38.1705100   -84.2418400   -0.7020996    72.4396400    -0.7076849    72.5140900    -47.4588000   -14.0907400   
14500000000   -26.0629700   -85.6418300   -0.7171885    0.4073123     -0.7175379    0.5245765     -26.2784600   -91.1684300   
14600000000   -31.5743700   -138.1859000  -0.7130074    -71.5115800   -0.7151096    -71.4109300   -31.5724800   -159.9174000  
14700000000   -28.4476100   -61.6755000   -0.7153590    -143.5333000  -0.7212967    -143.4527000  -28.6625800   -55.1714400   
14800000000   -25.7272200   -115.0063000  -0.7243277    144.4986000   -0.7263201    144.6038000   -26.0215400   -127.4830000  
14900000000   -38.1165800   -80.7329900   -0.7190228    72.4879700    -0.7189085    72.5520700    -45.4886000   -17.2817900   
15000000000   -24.8392700   -87.3335700   -0.7277689    0.5033711     -0.7347747    0.5908548     -25.1306900   -90.3685200   
15100000000   -28.3468700   -133.3722000  -0.7242393    -71.4909700   -0.7274846    -71.4223600   -30.0708500   -173.9263000  
15200000000   -29.1754200   -66.8643500   -0.7301672    -143.5565000  -0.7322900    -143.4625000  -30.2801900   -50.3039700   
15300000000   -25.0188900   -115.2530000  -0.7372099    144.6048000   -0.7386571    144.6603000   -25.0901400   -128.1862000  
15400000000   -33.8135300   -109.7803000  -0.7246522    72.5756200    -0.7291294    72.6573900    -41.8852100   73.6069000    
15500000000   -25.0078000   -90.4694100   -0.7441447    0.5297318     -0.7472618    0.6652095     -25.4861900   -89.3078500   
15600000000   -27.3338900   -135.4969000  -0.7439821    -71.3540900   -0.7443898    -71.2818800   -27.7165100   -171.2130000  
15700000000   -29.3711500   -83.1935700   -0.7349951    -143.4044000  -0.7404578    -143.3583000  -30.5853900   -38.4094200   
15800000000   -25.7917000   -121.8561000  -0.7453766    144.6328000   -0.7504581    144.7469000   -25.8243400   -120.9894000  
15900000000   -32.5477900   -105.7458000  -0.7434181    72.6631800    -0.7447564    72.7563700    -40.2968000   77.1338300    
16000000000   -25.2520800   -103.2828000  -0.7552502    0.6942982     -0.7592145    0.7403141     -25.1945400   -78.0074900   
16100000000   -27.9024000   -148.6582000  -0.7480576    -71.3071200   -0.7518294    -71.2392100   -28.1006100   -153.8492000  
16200000000   -28.6297300   -90.4185100   -0.7502151    -143.3522000  -0.7522773    -143.1855000  -30.0252900   -31.8009900   
16300000000   -25.8413400   -124.2630000  -0.7584805    144.7523000   -0.7573851    144.8285000   -25.5649700   -116.3255000  
16400000000   -33.1582200   -119.0859000  -0.7505741    72.7046300    -0.7564406    72.7872000    -45.6090100   69.1144100    
16500000000   -24.7518600   -103.3676000  -0.7631747    0.7052782     -0.7685169    0.7824061     -25.0304100   -75.1546400   
16600000000   -28.2504800   -140.8493000  -0.7571361    -71.2173800   -0.7548914    -71.1478700   -29.4892500   -158.8372000  
16700000000   -28.5312200   -89.8426700   -0.7615077    -143.2649000  -0.7622759    -143.1662000  -29.6456500   -31.1556900   
16800000000   -24.4692400   -128.4391000  -0.7725422    144.7991000   -0.7777563    144.9011000   -24.5069600   -111.7005000  
16900000000   -31.8666400   -119.0015000  -0.7610062    72.7746600    -0.7616191    72.8107500    -39.3154900   87.3522300    
17000000000   -24.5886700   -109.5883000  -0.7684391    0.7373322     -0.7785805    0.8021674     -24.6021800   -66.4179000   
17100000000   -26.8770600   -152.5741000  -0.7729142    -71.1954200   -0.7695938    -71.0701400   -27.3475600   -151.2388000  
17200000000   -27.9753000   -94.2065900   -0.7736071    -143.2393000  -0.7751726    -143.1630000  -28.3005700   -28.3659400   
17300000000   -24.5465600   -132.5574000  -0.7783610    144.8334000   -0.7874954    144.9209000   -24.6240200   -104.2496000  
17400000000   -34.4347500   -148.3925000  -0.7696201    72.7488200    -0.7701529    72.8596600    -39.9357800   155.4782000   
17500000000   -23.8749800   -113.5482000  -0.7932156    0.7328620     -0.7909702    0.8312040     -23.9019800   -67.6995700   
17600000000   -26.1783400   -169.1733000  -0.7887427    -71.0913100   -0.7880850    -70.9974000   -26.1831600   -135.5792000  
17700000000   -30.0831300   -91.3867800   -0.7772055    -143.1970000  -0.7843452    -143.1263000  -30.4517200   -34.0072400   
17800000000   -23.1850900   -138.6817000  -0.7939055    144.8445000   -0.8022209    144.9273000   -23.3190200   -108.4784000  
17900000000   -33.0221200   -164.3555000  -0.7872220    72.8702900    -0.7830234    72.9463100    -37.7383300   -176.4497000  
18000000000   -24.9774700   -112.2878000  -0.7944292    0.8156965     -0.7966795    0.8945583     -25.5084600   -71.1945600   
18100000000   -25.7317100   -166.2747000  -0.7907531    -71.0850000   -0.8004673    -71.0186600   -25.6958700   -144.8420000  
18200000000   -31.7507700   -110.8100000  -0.7903171    -143.1924000  -0.8019693    -143.1211000  -34.6176800   -25.3567500   
18300000000   -23.9547500   -140.4369000  -0.8099843    144.8526000   -0.8064013    144.9387000   -24.1997500   -103.5698000  
18400000000   -32.2309800   -174.7037000  -0.7951674    72.9300800    -0.7947450    72.9992700    -33.7650200   165.5378000   
18500000000   -25.0565400   -115.7626000  -0.7969286    0.8454443     -0.8109947    0.9559540     -25.5714200   -69.8205600   
18600000000   -25.0784200   -166.6081000  -0.8070440    -71.0888800   -0.8120704    -70.9651600   -25.5515700   -141.4307000  
18700000000   -30.7734600   -96.9498500   -0.8090729    -143.1324000  -0.8086862    -143.0974000  -33.2902100   -31.0052200   
18800000000   -22.9860000   -140.8181000  -0.8219728    144.9398000   -0.8231469    145.0439000   -23.1063200   -108.1106000  
18900000000   -30.7476800   169.5193000   -0.7984639    72.9883600    -0.8079805    73.0665200    -30.3040500   -170.2122000  
19000000000   -25.1168900   -117.2230000  -0.8147361    0.8164261     -0.8283717    0.9702848     -25.4347400   -70.8342100   
19100000000   -24.0346300   175.9537000   -0.8300589    -70.9555200   -0.8267052    -70.9073300   -23.1028400   -131.1035000  
19200000000   -38.7749700   -132.8669000  -0.8047616    -142.9780000  -0.8064328    -142.9436000  -40.4913700   -69.7595400   
19300000000   -22.9688200   -145.3421000  -0.8204617    144.9668000   -0.8358145    145.0949000   -22.7234300   -105.6929000  
19400000000   -29.6259000   144.0863000   -0.8202966    73.0446900    -0.8281071    73.1826400    -27.6246300   -155.2481000  
19500000000   -26.6827900   -122.4979000  -0.8265374    0.9581791     -0.8318556    1.0060360     -26.5757900   -70.8229400   
19600000000   -24.4296200   -179.0813000  -0.8323193    -70.9308300   -0.8327912    -70.8798600   -23.9678700   -134.8346000  
19700000000   -49.0499300   -96.8284000   -0.8021063    -142.9569000  -0.8181918    -142.8529000  -36.8710700   -123.8787000  
19800000000   -25.2108900   -149.8685000  -0.8325589    144.8902000   -0.8349325    145.1135000   -24.5372700   -101.0726000  
19900000000   -28.2423500   144.1162000   -0.8318255    73.1141200    -0.8331177    73.1488000    -27.6196500   -160.4139000  
20000000000   -29.9049600   -117.6448000  -0.8189826    0.9985630     -0.8324012    1.0679110     -29.1013400   -82.9562300   
20100000000   -25.9224100   176.7031000   -0.8300843    -70.9927300   -0.8285863    -70.8107800   -25.0584800   -128.4624000  
20200000000   -52.9164700   -23.5796400   -0.8279896    -143.0196000  -0.8290954    -142.8688000  -35.7292900   -104.6002000  
20300000000   -24.7537400   -141.4943000  -0.8400337    144.9958000   -0.8452037    145.1726000   -24.5503900   -110.4469000  
20400000000   -29.7310600   142.1710000   -0.8252844    73.0993800    -0.8242618    73.1679300    -27.5347300   -148.4006000  
20500000000   -31.5111600   -114.6685000  -0.8219606    0.9623600     -0.8292915    1.1378510     -29.1663300   -73.9471300   
20600000000   -24.8923100   166.7106000   -0.8471784    -70.9419200   -0.8350518    -70.7128600   -24.5228500   -125.2018000  
20700000000   -38.6931500   78.4430300    -0.8306127    -142.9381000  -0.8299236    -142.7998000  -32.9252000   -145.4758000  
20800000000   -26.5602600   -149.7259000  -0.8460447    144.9893000   -0.8456751    145.1864000   -25.8165000   -101.0111000  
20900000000   -29.4213400   133.2322000   -0.8366644    73.0746500    -0.8224552    73.2466900    -28.0469900   -150.5400000  
21000000000   -33.4847500   -125.6684000  -0.8379269    0.9973637     -0.8267246    1.2033380     -33.2151800   -83.3622400   
21100000000   -28.7411400   162.4185000   -0.8476890    -70.9300200   -0.8275915    -70.7567200   -27.3730200   -113.7159000  
21200000000   -39.1585600   10.2376800    -0.8360929    -142.8988000  -0.8247883    -142.7758000  -35.0176500   -118.6653000  
21300000000   -28.0243000   -165.8804000  -0.8410521    145.0434000   -0.8267951    145.1617000   -27.2033100   -91.7097600   
21400000000   -31.1565000   122.5845000   -0.8498094    73.0155000    -0.8258385    73.1557800    -29.9830900   -138.9230000  
21500000000   -36.2337800   -96.7852200   -0.8525790    1.0169760     -0.8241207    1.0936900     -33.7993800   -91.8941400   
21600000000   -28.9374600   148.1832000   -0.8502439    -70.9541400   -0.8348284    -70.9416500   -28.3140100   -114.3774000  
21700000000   -38.8333500   40.6633800    -0.8364573    -142.9743000  -0.8234820    -142.9906000  -33.1593900   -132.9699000  
21800000000   -32.3314100   -155.0733000  -0.8477190    144.9181000   -0.8337829    144.9058000   -31.1474300   -100.2788000  
21900000000   -30.6627500   96.2293200    -0.8572774    73.0187000    -0.8417019    73.0160800    -28.9806800   -128.5050000  
22000000000   -43.4963900   -69.5308800   -0.8437165    0.9671422     -0.8472611    0.9374796     -36.3901800   -110.5291000  
22100000000   -32.5488400   152.7280000   -0.8563428    -71.0844100   -0.8597211    -71.0464100   -32.1530500   -111.6209000  
22200000000   -35.2001500   28.7653100    -0.8578842    -143.0591000  -0.8605734    -143.1104000  -32.6434000   -135.4468000  
22300000000   -36.6685500   -161.7614000  -0.8572367    144.8949000   -0.8625413    144.9317000   -32.3675300   -98.9190600   
22400000000   -33.9701000   108.0038000   -0.8476727    72.8775600    -0.8636398    72.9356500    -33.5408000   -117.7482000  
22500000000   -46.3563000   40.6557800    -0.8612466    0.8326316     -0.8717169    0.9765611     -44.9533300   172.6689000   
22600000000   -34.0453000   103.5321000   -0.8631690    -71.0580100   -0.8613315    -71.0065500   -32.3450700   -85.1819300   
22700000000   -36.6563000   23.6288000    -0.8672874    -143.0338000  -0.8708586    -142.9474000  -33.9912700   -113.5002000  
22800000000   -34.8642300   95.8087400    -0.8699878    144.8958000   -0.8693715    144.9776000   -36.1390400   -5.3781160    
22900000000   -30.5675600   40.5134200    -0.8610821    72.7827500    -0.8740570    72.9330700    -30.6646300   -87.8383900   
23000000000   -38.5218800   -3.6429080    -0.8642632    0.7451801     -0.8642253    0.9161911     -38.8792600   -140.6028000  
23100000000   -31.5559000   60.3245700    -0.8766540    -71.2076600   -0.8702782    -71.1584900   -31.6957400   -24.2450000   
23200000000   -31.6604800   -7.2250000    -0.8635220    -143.2250000  -0.8635750    -143.0220000  -31.1808500   -103.0133000  
23300000000   -39.6797400   2.5912990     -0.8701672    144.7067000   -0.8670503    144.8312000   -44.8984900   16.4185000    
23400000000   -32.6976100   26.0762200    -0.8787850    72.6791600    -0.8906443    72.8308600    -31.5746800   -57.3855900   
23500000000   -35.8995400   4.3083030     -0.8884242    0.7336183     -0.8746275    0.9012532     -41.5717200   -176.4730000  
23600000000   -32.5989300   22.1746100    -0.8680274    -71.2993500   -0.8645965    -71.1910600   -34.6926100   -18.1962300   
23700000000   -32.7389600   -6.9695720    -0.8771482    -143.3792000  -0.8678994    -143.1170000  -31.7867800   -85.8334400   
23800000000   -33.8467400   41.2980400    -0.8832184    144.6253000   -0.8680271    144.7797000   -38.1613800   39.3327600    
23900000000   -28.5978900   3.1890600     -0.8844498    72.6497700    -0.8807954    72.7595200    -29.5341700   -37.1122000   
24000000000   -33.7480800   -35.0283400   -0.8857961    0.6227678     -0.8675596    0.8309187     -35.8583000   -131.6498000  
24100000000   -28.5429200   35.1681900    -0.8957961    -71.4037100   -0.8761456    -71.2084800   -30.6602700   -5.1944520    
24200000000   -27.9594500   -21.0323700   -0.8952253    -143.2875000  -0.8750300    -143.0373000  -28.7671500   -72.5570800   
24300000000   -35.6583000   1.4440310     -0.8914961    144.7141000   -0.8549066    144.8226000   -37.6633500   72.3097800    
24400000000   -27.2767500   4.8901010     -0.8995017    72.5577700    -0.8669429    72.6533300    -28.5413500   -28.8471200   
24500000000   -31.8828400   -27.3733500   -0.8973455    0.4968620     -0.8503059    0.6746608     -34.0957000   -125.2658000  
24600000000   -26.2725900   11.7776600    -0.9144816    -71.5716600   -0.8639509    -71.4901700   -26.0317000   12.5670700    
24700000000   -25.9310600   -37.3564300   -0.9158488    -143.4142000  -0.8684810    -143.3975000  -25.9677000   -63.7117100   
24800000000   -31.1913000   7.3736940     -0.9070825    144.4718000   -0.8352594    144.3013000   -36.1609600   78.8827300    
24900000000   -22.7989500   -12.0436600   -0.9268817    72.4203300    -0.8711060    72.1130400    -23.0297300   -26.3718800   
25000000000   -28.8888500   -63.1602900   -0.9197791    0.4494561     -0.8743027    0.1764216     -29.7649200   -101.6572000  
25100000000   -25.0799800   6.9833670     -0.9246030    -71.6512500   -0.9088819    -72.2384500   -27.2170400   15.7787100    
25200000000   -22.4947100   -45.6166300   -0.9344020    -143.5539000  -0.9569884    -144.1476000  -22.4051400   -57.4215200   
25300000000   -37.2805000   -35.9202500   -0.9182294    144.4102000   -0.9456348    143.9155000   -47.3387000   37.7073100    
25400000000   -22.4993500   -15.9073500   -0.9463356    72.2946700    -0.9949694    71.9928800    -22.8004200   -19.6458700   
25500000000   -24.6803700   -67.2414000   -0.9446450    0.4359856     -1.0109460    0.2629981     -25.0497700   -96.1776000   
25600000000   -26.2429100   6.8880840     -0.9394154    -71.8321500   -1.0066360    -71.9871600   -25.7380000   5.8814620     
25700000000   -21.5735100   -44.9694800   -0.9664007    -143.7372000  -1.0314950    -143.7677000  -21.4890900   -54.4653800   
25800000000   -32.4167800   -58.4963400   -0.9378690    144.2856000   -0.9825301    144.3896000   -41.8847700   -126.2306000  
25900000000   -20.7140000   -16.6942300   -0.9721748    72.1348100    -1.0303890    72.2044100    -21.1224600   -25.7293800   
26000000000   -23.5286100   -79.8568300   -0.9562583    0.4130673     -1.0078570    0.5992853     -23.2559000   -85.9015800   
26100000000   -24.4536100   -1.1449250    -0.9493896    -71.8386300   -0.9993005    -71.6785500   -25.0725600   16.2117600    
26200000000   -18.3812100   -51.6672600   -1.0113620    -143.7430000  -1.0507670    -143.5379000  -18.5831300   -53.1305100   
26300000000   -30.2987700   -106.0873000  -0.9499244    144.2028000   -0.9769856    144.4347000   -30.5400300   -97.7608500   
26400000000   -19.9469500   -21.7427100   -0.9825651    71.9066700    -1.0163820    72.1335700    -20.3555900   -20.5385700   
26500000000   -20.5290700   -84.7179900   -0.9749112    0.3446239     -1.0092370    0.5946645     -20.4242600   -80.1025100   
