# GHz S RI R 50.0 
!freq ReS11 ImS11 ReS21 ImS21 ReS12 ImS12 ReS22 ImS22
1.0 0.00934950989084156 0.08557111803141798 0.9907779621172677 -0.1049703860311577 0.9907779621170345 -0.10497038603135381 0.008650830117596847 0.08564615122830352
1.1382765531062125 0.012093645382588447 0.0971352445046324 0.9880765057794897 -0.11922958780878609 0.9880765057792481 -0.11922958780900825 0.011197727282957495 0.0972444939618057
1.276553106212425 0.01517900906934308 0.10859668874633019 0.9850386927003943 -0.1333909334443105 0.9850386927001435 -0.13339093344455846 0.014061580884394173 0.10874927500155293
1.4148296593186374 0.018600729118277495 0.1199438380587714 0.9816691637527711 -0.14744335632937683 0.9816691637525096 -0.14744335632965017 0.017237959903342787 0.12014991195127886
1.5531062124248498 0.02235344007858696 0.13116536500295714 0.9779730299740428 -0.1613760618026151 0.9779730299737701 -0.1613760618029132 0.02072198439320669 0.1314360819462566
1.691382765531062 0.026431302687152186 0.1422502527586387 0.9739558536834091 -0.17517855132591129 0.9739558536831244 -0.1751785513262339 0.024508343501050453 0.14259774472544182
1.8296593186372745 0.030828025170935053 0.153187818902857 0.9696236281719852 -0.1888406451529276 0.9696236281716877 -0.188840645153274 0.02859131485121258 0.15362516426458597
1.967935871743487 0.03553688590415352 0.1639677375105424 0.9649827561012657 -0.20235250339789118 0.9649827561009535 -0.20235250339826086 0.032964785161664914 0.16450892888253588
2.106212424849699 0.04055075727195229 0.17458005949476071 0.9600400267512899 -0.21570464542608303 0.960040026750963 -0.2157046454264754 0.037622271958192205 0.1752399697457305
2.244488977955912 0.045862130587403405 0.18501523111862228 0.9548025922645347 -0.2288879675012124 0.9548025922641922 -0.22888796750162685 0.04255694624702466 0.18580957770903342
2.382765531062124 0.051463141905367465 0.1952641106255047 0.9492779430347092 -0.24189375863880938 0.9492779430343503 -0.2418937586392452 0.04776165600353918 0.19620941844435483
2.5210420841683363 0.057345598574913614 0.205317982948892 0.9434738823913706 -0.25471371462874753 0.9434738823909943 -0.254713714629204 0.05322895033299871 0.20643154582185305
2.6593186372745494 0.06350100637165335 0.2151685724776603 0.937398500731616 -0.2673399502038485 0.9373985007312219 -0.26733995020432477 0.05895110415896329 0.21646841352172078
2.797595190380762 0.0699205970524229 0.2248080538668642 0.9310601492490683 -0.2797650093450885 0.9310601492486547 -0.27976500934558396 0.06492014329600361 0.22631288486750475
2.9358717434869743 0.07659535617718513 0.23422906089787016 0.9244674134080525 -0.2919818737270718 0.9244674134076193 -0.29198187372758566 0.07112786976555888 0.23595824088445985
3.074148296593187 0.08351605104670515 0.24342469340490147 0.917629086307352 -0.3039839693200387 0.9176290863068987 -0.3039839693205704 0.07756588721714136 0.2453981865984617
3.212424849699399 0.0906732586094629 0.2523885222975828 0.9105541420732434 -0.3157651711766212 0.9105541420727694 -0.31576517117716946 0.08422562632153799 0.2546268556024024
3.3507014028056115 0.09805739319717913 0.26111459272080595 0.9032517094158916 -0.32731980644273373 0.9032517094153967 -0.327319806443298 0.09109837000805734 0.2636388129276685
3.488977955911824 0.1056587339552392 0.2695974254040888 0.8957310454765703 -0.33864265564234586 0.8957310454760536 -0.3386426556429251 0.09817527842415351 0.27242905626817016
3.6272545090180364 0.11346745184201718 0.2778320162624861 0.8880015100858456 -0.34972895229529616 0.8880015100853066 -0.34972895229588963 0.10544741350277323 0.28099301561339396
3.765531062124249 0.12147363607952376 0.2858138343199937 0.8800725405448115 -0.3605743809357869 0.8800725405442495 -0.3605743809363939 0.11290576303044045 0.2893265513550266
3.9038076152304613 0.12966731994679914 0.29353881803422754 0.8719536270328978 -0.3711750736066635 0.8719536270323127 -0.3711750736072828 0.1205412641172803 0.2974259509388379
4.0420841683366735 0.13803850581691168 0.30100337010790873 0.8636542887367653 -0.38152760491102233 0.8636542887361564 -0.38152760491165294 0.12834482597877442 0.30528792413964306
4.180360721442886 0.14657718934819397 0.30820435087836784 0.8551840507854918 -0.39162898570811433 0.8551840507848589 -0.39162898570875576 0.1363073519479207 0.31290959704235205
4.318637274549099 0.1552733827503035 0.31513907038089567 0.8465524220677619 -0.40147665554489476 0.8465524220671048 -0.40147665554554574 0.14441976064555279 0.32028850481628884
4.4569138276553115 0.16411713705575076 0.32180527918530527 0.8377688739971789 -0.41106847391795864 0.8377688739964972 -0.41106847391861817 0.1526730062456892 0.327422583373203
4.595190380761524 0.1730985633375672 0.3282011581076147 0.8288428202822675 -0.42040271046301514 0.8288428202815612 -0.42040271046368255 0.16105809778194513 0.33431016000169866
4.733466933867736 0.1822078528236798 0.334325306900286 0.8197835977482919 -0.4294780341705212 0.8197835977475603 -0.4294780341711954 0.16956611745001698 0.34094994307220494
4.871743486973949 0.19143529586825284 0.3401767320251019 0.8106004482487748 -0.43829350172669346 0.8106004482480184 -0.4382935017273736 0.178188237870078 0.34734101090718394
5.010020040080161 0.20077129974964883 0.345754833612476 0.8013025016956546 -0.4468485450788643 0.801302501694873 -0.4468485450795493 0.1869157382814815 0.3534827999110308
5.148296593186374 0.21020640527368448 0.3510593917099499 0.7918987602284094 -0.45514295832314394 0.7918987602276026 -0.45514295832383284 0.19574001965034926 0.35937509205316265
5.286573146292587 0.2197313021694372 0.3560905519208315 0.7823980835342932 -0.46317688401062745 0.7823980835334607 -0.4631768840113195 0.2046526186784691 0.3650180017961493
5.424849699398798 0.22933684327298381 0.36084881053144435 0.7728091753240942 -0.47095079896603875 0.7728091753232366 -0.4709507989667329 0.21364522070928235 0.37041196255849523
5.56312625250501 0.23901405750202204 0.3653349992224202 0.763140570960601 -0.47846549970978514 0.7631405709597175 -0.4784654997104807 0.22270967153365145 0.3755577127989014
5.701402805611223 0.24875416163135766 0.36955026945588 0.753400626230248 -0.4857220875709898 0.7534006262293397 -0.4857220875716856 0.2318379881044989 0.380456281805582
5.839679358717435 0.2585485708856876 0.37349607662633655 0.7435975072422951 -0.4927219535752397 0.7435975072413615 -0.4927219535759349 0.24102236817525066 0.3851089752705564
5.977955911823647 0.2683889083719613 0.37717416405876775 0.733739181434279 -0.49946676318660527 0.7337391814333203 -0.499466763187299 0.2502551988823754 0.389517360724848
6.11623246492986 0.27826701337885107 0.3805865469326185 0.7238334096574974 -0.5059584409790235 0.7238334096565139 -0.5059584409797149 0.25952906429706113 0.39368325290625317
6.254509018036072 0.28817494857552123 0.38373549620558994 0.7138877393118394 -0.5121991553074531 0.7138877393108309 -0.5121991553081414 0.2688367519753191 0.39760869912688634
6.3927855711422845 0.29810500614593904 0.3866235226059815 0.7039094984953965 -0.5181913030443646 0.7039094984943636 -0.5181913030450487 0.27817125853950064 0.40129596470307094
6.531062124248497 0.30804971289846095 0.38925336075717676 0.693905791130988 -0.523937494442192 0.6939057911299307 -0.5239374944428713 0.28752579432737085 0.4047475185054393
6.669338677354711 0.3180018343933483 0.3916279534926265 0.6838834930289225 -0.5294405381773759 0.683883493027841 -0.5294405381780499 0.29689378714755704 0.40796601868233867
6.807615230460923 0.32795437813324224 0.39375043641445073 0.6738492488430678 -0.5347034266266467 0.6738492488419627 -0.5347034266273142 0.30626888518234685 0.4109542986048774
6.945891783567134 0.3379005958635284 0.395624122743594 0.6638094698754919 -0.5397293214212432 0.6638094698743634 -0.5397293214219032 0.3156449590805326 0.4137153530772313
7.084168336673346 0.3478339850308886 0.39725248850437817 0.6537703326836173 -0.5445215393199144 0.6537703326824652 -0.5445215393205666 0.32501610328425423 0.4162523248511873
7.222444889779559 0.35774828944931025 0.3986391580813134 0.6437377784429256 -0.5490835384368019 0.6437377784417511 -0.5490835384374451 0.334376636634671 0.41856849147938396
7.3607214428857715 0.36763749922332933 0.399787890181219 0.6337175130177515 -0.5534189048557115 0.6337175130165542 -0.5534189048563453 0.3437211023017529 0.42066725253731385
7.498997995991983 0.37749584997845487 0.4007025642290737 0.623715007692542 -0.5575313396578637 0.6237150076913227 -0.5575313396584872 0.3530442670836414 0.4225521172399497
7.637274549098197 0.38731782144850857 0.4013871672215663 0.6137355005161775 -0.561424646385988 0.6137355005149365 -0.5614246463866007 0.36234112012083325 0.42422669247481
7.7755511022044095 0.3970981354690977 0.4018457810581339 0.603783998212412 -0.5651027189636083 0.6037839982111499 -0.5651027189642095 0.37160687106997203 0.4256946712694568
7.913827655310622 0.4068317534256725 0.40208257036527173 0.5938652786102615 -0.5685695300845828 0.5938652786089786 -0.5685695300851717 0.38083694778133115 0.4269598217078013
8.052104208416836 0.4165138732035466 0.40210177082618637 0.5839838935491491 -0.5718291200843987 0.5839838935478456 -0.5718291200849748 0.3900269935231021 0.4280259763061902
8.190380761523047 0.4261399256860422 0.40190767802438004 0.5741441722148112 -0.5748855863014054 0.5741441722134879 -0.5748855863019678 0.39917286379448985 0.42889702185708767
8.32865731462926 0.4357055708454629 0.40150463680651743 0.5643502248633373 -0.577743072933099 0.5643502248619947 -0.5777430729336475 0.4082706227682944 0.42957688974522884
8.466933867735472 0.44520669347002867 0.4008970311669717 0.5546059468922244 -0.5804057613897272 0.5546059468908632 -0.580405761390261 0.41731653940221614 0.43006954673841263
8.605210420841685 0.45463939856818514 0.40008927465370764 0.5449150232189619 -0.5828778611449023 0.5449150232175825 -0.5828778611454212 0.42630708325658173 0.4303789862526348
8.743486973947897 0.46400000648987877 0.3990858012927064 0.5352809329293924 -0.5851636010805445 0.5352809329279951 -0.5851636010810476 0.4352389200545056 0.4305092200890045
8.88176352705411 0.47328504780252645 0.39789105702589234 0.5257069541598973 -0.5872672213213592 0.5257069541584827 -0.5872672213218462 0.4441089070188183 0.4304642706378675
9.020040080160323 0.4824912579574301 0.39650949165553845 0.5161961691793016 -0.5891929655521441 0.5161961691778703 -0.5891929655526144 0.452914088018291 0.43024816354373707
9.158316633266535 0.4916155717804357 0.39494555128634723 0.5067514696382868 -0.5909450738095375 0.5067514696368394 -0.5909450738099908 0.4616516885539143 0.4298649208230274
9.296593186372746 0.5006551178186276 0.39320367125486144 0.4973755619559977 -0.5925277757383434 0.49737556195453486 -0.592527775738779 0.4703191106141525 0.42931855442516853
9.434869739478959 0.5096072125728587 0.391288269534501 0.4880709728154332 -0.5939452843012705 0.4880709728139553 -0.5939452843016882 0.4789139274262936 0.4286130602264597
9.573146292585172 0.5184693546439367 0.38920374060337143 0.4788400547410934 -0.5952017899298312 0.47884005473960095 -0.5952017899302303 0.4874338781292056 0.4277524124449539
9.711422845691382 0.5272392188183292 0.3869544497610117 0.4696849917342286 -0.5963014551032172 0.4696849917327221 -0.5963014551035979 0.4958768623910308 0.42674055846379755
9.849699398797595 0.5359146501173468 0.3845447278794519 0.4606078049428492 -0.5972484093411936 0.46060780494132975 -0.5972484093415551 0.5042409349936247 0.42558141404970357
9.987975951903808 0.5444936578318754 0.3819788665732999 0.45161035834544677 -0.5980467445964495 0.4516103583439146 -0.5980467445967911 0.5125243004038116 0.42427885895265377
10.12625250501002 0.5529744095629373 0.37926111377307165 0.44269436442909826 -0.5987005110313515 0.44269436442755394 -0.5987005110316739 0.5207253073499187 0.4228367328724727
10.264529058116233 0.5613552252865931 0.3763956696856239 0.43386138984429873 -0.5992137131637149 0.43386138984274286 -0.5992137131640171 0.528842443420428 0.421258831777575
10.402805611222446 0.5696345714600287 0.3733866831252927 0.42511286102046975 -0.5995903063659489 0.4251128610189033 -0.5995903063662307 0.5368743297000679 0.41954890456097227
10.541082164328657 0.5778110551840319 0.370238248199212 0.4164500697276342 -0.5998341937018338 0.4164500697260571 -0.599834193702095 0.5448197154571899 0.41771065001849744
10.67935871743487 0.5858834184355667 0.36695440133025026 0.40787417857120317 -0.5999492230851279 0.4078741785696165 -0.5999492230853684 0.5526774728948918 0.41574771413418
10.817635270541082 0.593850532382648 0.3635391186010654 0.3993862264082324 -0.5999391847442758 0.3993862264066368 -0.5999391847444951 0.5604465919769932 0.41366368765774986
10.955911823647295 0.6017113917923647 0.359996313402899 0.3909871336748013 -0.5998078089776068 0.39098713367319726 -0.5998078089778051 0.568126175338737 0.41146210395937427
11.094188376753507 0.6094651095415816 0.356329834372957 0.38267770761543596 -0.5995587641836139 0.3826777076138243 -0.5995587641837903 0.5757154332908834 0.4091464371469192
11.23246492985972 0.6171109112386273 0.35254346360447325 0.3744586474066525 -0.5991956551511547 0.37445864740503343 -0.5991956551513096 0.5832136789247567 0.40672010043127144
11.370741482965933 0.6246481299631215 0.3486409151138809 0.3663305491677963 -0.5987220215947286 0.3663305491661707 -0.5987220215948617 0.5906203233247517 0.4041864447255431
11.509018036072145 0.6320762011300268 0.34462583354988674 0.35829391085338225 -0.5981413369203225 0.3582939108517503 -0.5981413369204339 0.5979348708938319 0.40154875746432345
11.647294589178356 0.6393946574830057 0.3405017931296387 0.3503491370220837 -0.5974570072077143 0.35034913702044646 -0.5974570072078037 0.6051569147966531 0.3988102616295021
11.78557114228457 0.6466031242212381 0.3362722967876266 0.3424965434784128 -0.5966723703955377 0.34249654347677083 -0.5966723703956046 0.6122861325240765 0.39597411496959134
11.923847695390783 0.6537013142630029 0.3319407755234005 0.3347363617839398 -0.5957906956558402 0.3347363617822936 -0.5957906956558854 0.6193222815820904 0.3930434093998936
12.062124248496996 0.6606890236485387 0.327510587934696 0.3270687436356542 -0.5948151829453528 0.3270687436340042 -0.5948151829453756 0.6262651953074163 0.3900211705712993
12.200400801603209 0.6675661270839613 0.3229850199230393 0.3194937651097689 -0.5937489627211364 0.31949376510811567 -0.5937489627211368 0.6331147788114242 0.38691035759595804
12.338677354709422 0.6743325736273847 0.31836728455941377 0.312011430769879 -0.5925950958087748 0.31201143076822346 -0.5925950958087529 0.6398710050533926 0.3837138629185222
12.476953907815634 0.6809883825177504 0.31366052209810286 0.3046216776389865 -0.5913565734117728 0.3046216776373289 -0.5913565734117286 0.6465339110435764 0.38043451232214043
12.615230460921845 0.6875336391463643 0.30886780012731835 0.297324379035391 -0.5900363172513059 0.29732437903373216 -0.5900363172512393 0.65310359417608 0.37707506505884464
12.753507014028058 0.693968491170628 0.30399211384576363 0.29011934827294783 -0.5886371798259699 0.29011934827128816 -0.5886371798258806 0.6595802086910604 0.37363821409444864
12.89178356713427 0.7002931447689994 0.2990363864547897 0.2830063422265902 -0.5871619447816724 0.28300634222493015 -0.5871619447815608 0.6659639622653912 0.37012658645854946
13.030060120240483 0.7065078610358505 0.29400346965630997 0.2759850647644022 -0.585613327382289 0.27598506476274265 -0.5856133273821552 0.6722551127305677 0.3665427436906807
13.168336673346696 0.7126129525145197 0.288896144247147 0.2690551700478616 -0.5839939750721908 0.26905517004620266 -0.5839939750720347 0.6784539649162981 0.36288918237413403
13.306613226452908 0.7186087798665528 0.2837171208009841 0.26221626570215834 -0.5823064681222218 0.26221626570050094 -0.5823064681220433 0.6845608676179664 0.35916833474940674
13.44488977955912 0.72449574867485 0.2784690404295604 0.2554679158587647 -0.5805533203511637 0.25546791585710904 -0.5805533203509632 0.6905762106858792 0.3553825693996763
13.583166332665332 0.730274306378222 0.2731544756152405 0.24880964407264627 -0.5787369799151748 0.2488096440709933 -0.5787369799149522 0.6965004222340175 0.35153419200113456
13.721442885771545 0.7359449393346267 0.2677759311075346 0.24224093611670036 -0.5768598301581249 0.24224093611505038 -0.5768598301578807 0.7023339659658271 0.3476254461314212
13.859719438877756 0.7415081700102144 0.2623358448765811 0.23576124265616752 -0.5749241905161714 0.2357612426545209 -0.5749241905159049 0.708077338614415 0.3436585141298088
13.997995991983968 0.746964554291147 0.2568365891170573 0.22936998180590626 -0.5729323174703301 0.22936998180426366 -0.5729323174700421 0.713731067494395 0.3396355180031768
14.136272545090181 0.7523146789150544 0.2512804712963624 0.2230665415735194 -0.5708864055411881 0.22306654157188133 -0.5708864055408784 0.7192957081625291 0.33555852037218725
14.274549098196395 0.7575591590188872 0.24566973524134406 0.21685028219142238 -0.5687885883202813 0.2168502821897893 -0.5687885883199502 0.7247718421842113 0.3314295254524343
14.412825651302608 0.7626986357998585 0.2400065622582042 0.21072053834100204 -0.566640939533024 0.21072053833937435 -0.5666409395326717 0.7301600750027814 0.3272504800656929
14.55110220440882 0.7677337742861169 0.23429307228057789 0.20467662127207167 -0.564445474128428 0.20467662127045017 -0.5644454741280542 0.7354610339086132 0.3230232746767129
14.689378757515033 0.7726652612137498 0.2285313250411563 0.1987178208208548 -0.5622041493911736 0.19871782081923972 -0.5622041493907791 0.7406753661048823 0.3187497444513321
14.827655310621246 0.7774938030067154 0.22272332126251695 0.19284340732975103 -0.5599188660719219 0.1928434073281428 -0.5599188660715063 0.7458037368669095 0.3144316703319769
14.965931863727459 0.7822201238562745 0.21687100386317487 0.18705263347213935 -0.5575914695320453 0.18705263347053835 -0.5575914695316091 0.7508468277919674 0.3100707801269096
15.104208416833671 0.7868449638965264 0.2109762591751488 0.1813447359854659 -0.555223750899254 0.18134473598387274 -0.5552237508987974 0.7558053351364471 0.30566874960985424
15.242484969939884 0.7913690774726512 0.20504091816962916 0.17571893731584512 -0.5528174482308573 0.1757189373142601 -0.5528174482303805 0.7606799682373035 0.30122720362689404
15.380761523046097 0.7957932314985121 0.19906675768760296 0.1701744471773683 -0.5503742476816629 0.17017444717579194 -0.5503742476811658 0.7654714480147192 0.2967477172077739
15.519038076152308 0.8001182039002975 0.19305550167254956 0.1647104640292855 -0.547895784673755 0.16471046402771816 -0.5478957846732381 0.7701805055529746 0.2922318166789829
15.65731462925852 0.804344782142934 0.18700882240254962 0.15932617647416777 -0.5453836450656249 0.15932617647260996 -0.5453836450650884 0.7748078807565393 0.2876809807761994
15.795591182364733 0.8084737618360553 0.18092834171940167 0.15402076458012165 -0.5428393663183503 0.15402076457857386 -0.5428393663177944 0.7793543210784607 0.2830966417539012
15.933867735470946 0.8125059454163807 0.17481563225252492 0.1487934011300505 -0.5402644386567074 0.14879340112851297 -0.5402644386561326 0.7838205803181859 0.2784801864901252
16.072144288577157 0.8164421409034026 0.16867221863565385 0.14364325280091417 -0.5376603062233125 0.14364325279938717 -0.5376603062227189 0.7882074174859903 0.2738329575845554
16.21042084168337 0.8202831607253775 0.16249957871449947 0.13856948127585889 -0.5350283682240514 0.1385694812743429 -0.535028368223439 0.7925155957312706 0.26915625444828173
16.348697394789582 0.8240298206126633 0.1562991447437487 0.13357124429202616 -0.5323699800632385 0.13357124429052158 -0.5323699800626078 0.7967458813320236 0.2644513343837396
16.486973947895795 0.8276829385555404 0.1500723045719166 0.128647696626773 -0.5296864544670941 0.12864769662528028 -0.5296864544664452 0.8008990427428866 0.25971941365348294
16.625250501002007 0.8312433338237192 0.1438204028127436 0.12379799102496639 -0.5269790625942831 0.1237979910234856 -0.5269790625936164 0.8049758496992039 0.2549616685365977
16.76352705410822 0.8347118260448296 0.13754474200195754 0.11902127906993365 -0.524249035132395 0.11902127906846538 -0.5242490351317108 0.8089770723746428 0.2501792363716777
16.901803607214433 0.838089234339247 0.1312465837383679 0.114316712000579 -0.5214975633793729 0.11431671199912358 -0.5214975633786716 0.8129034805899663 0.245373216585424
17.040080160320645 0.8413763765087221 0.12492714980837102 0.10968344147709103 -0.5187258003090155 0.10968344147564876 -0.518725800308297 0.816755843070636 0.24054467170602847
17.178356713426858 0.8445740682763296 0.11858762329308081 0.10512062029759697 -0.5159348616197963 0.10512062029616806 -0.5159348616190611 0.8205349267509967 0.23569462836062294
17.31663326653307 0.8476831225753644 0.11222914965738662 0.10062740306803336 -0.5131258267663388 0.1006274030666181 -0.5131258267655872 0.8242414961228687 0.23082407825615833
17.454909819639283 0.8507043488848672 0.10585283782036117 0.09620294682743016 -0.5102997399729842 0.09620294682602909 -0.5102997399722167 0.8278763126264511 0.22593397914318658
17.593186372745496 0.8536385526095678 0.09945976120651567 0.0918464116307256 -0.507457611228984 0.09184641162933876 -0.5074576112282008 0.8314401340814963 0.22102525576208543
17.73146292585171 0.8564865345020903 0.09305095877749646 0.08755696109115302 -0.5046004172649152 0.08755696108978064 -0.5046004172641162 0.8349337141568222 0.21609880077135757
17.86973947895792 0.8592490901253708 0.08662743604389764 0.08333376288416616 -0.5017291025100121 0.08333376288280878 -0.5017291025091981 0.8383578018762624 0.2111554756577022
18.008016032064134 0.8619270093532844 0.08019016605692716 0.07917598921479518 -0.4988445800301615 0.07917598921345292 -0.4988445800293328 0.8417131411592506 0.2061961116276224
18.146292585170347 0.8645210759075846 0.07374009037973892 0.07508281725024998 -0.495947732446378 0.07508281724892316 -0.4959477324455345 0.8450004703942958 0.20122151048039433
18.25 0.8664120652639267 0.06889467904847611 0.07205484117357658 -0.493767522672956 0.0720548411722613 -0.4937675226721016 0.8474217765817509 0.19748102646765842
18.28456913827656 0.8670320669293139 0.0672781200383058 0.0710534295195212 -0.4930394128336375 0.07105342951820995 -0.49303941283277963 0.8482205220436807 0.19623244546228008
18.422845691382772 0.8694607525829233 0.06080513645175509 0.06708701428165248 -0.49012044559999296 0.06708701428035718 -0.4901204455991213 0.851374022277764 0.19122966210191655
18.561122244488978 0.8718078956914143 0.05432199234215192 0.06318276586429727 -0.4871916273459553 0.06318276586301805 -0.4871916273450701 0.8544616906373554 0.1862138790268612
18.69939879759519 0.8740742514008775 0.04782951262375146 0.05933988497409762 -0.48425372770415487 0.05933988497283477 -0.48425372770325636 0.857484239722681 0.18118578876131206
18.837675350701403 0.8762605668728825 0.04132849527179281 0.05555757898036631 -0.48130749015935026 0.055557578979119865 -0.4813074901584389 0.8604423749075226 0.17614605850506787
18.975951903807616 0.8783675810032271 0.03481971217093542 0.051835062173484575 -0.4783536328488808 0.05183506217225478 -0.47835363284795696 0.8633367940771731 0.17109533089381812
19.11422845691383 0.8803960241656239 0.028303909943485153 0.048171555999368953 -0.47539284934369613 0.048171555998156146 -0.4753928493427599 0.8661681873889117 0.1660342247408947
19.25250501002004 0.8823466179789683 0.021781810757580213 0.04456628927130202 -0.4724258094101211 0.04456628927010642 -0.4724258094091731 0.8689372370537525 0.1609633357606364
19.390781563126254 0.8842200750968842 0.015254113115535031 0.041018498360361866 -0.4694531597525481 0.041018498359183614 -0.4694531597515885 0.8716446171382888 0.15588323727354864
19.529058116232466 0.8860170990183063 0.008721492622571997 0.037527427365632304 -0.4664755247372639 0.03752742736447151 -0.46647552473629317 0.8742909933854836 0.1507944808934623
19.66733466933868 0.8877383839179157 0.0021846027361873757 0.03409232826532066 -0.46349350709764836 0.03409232826417735 -0.46349350709666665 0.8768770230533376 0.14569759719691372
19.80561122244489 0.8893846144952939 -0.0043559245035835956 0.030712461049857365 -0.4605076886209918 0.03071246104873193 -0.4605076886199997 0.8794033547703911 0.14059309637498832
19.943887775551104 0.8909564658417213 -0.010899477762715406 0.02738709383800464 -0.4575186308172043 0.02738709383689719 -0.45751863081620203 0.8818706284070766 0.13548146886788456
20.082164328657317 0.8924546033235897 -0.017445465720255793 0.024115502976948894 -0.45452687556969057 0.024115502975859376 -0.4545268755686785 0.8842794749619803 0.13036318598246796
20.22044088176353 0.8938796824814447 -0.023993316393590668 0.020896973127309065 -0.4515329457686942 0.020896973126237783 -0.4515329457676726 0.8866305164621199 0.12523870049310035
20.358717434869742 0.8952323489437344 -0.030542476481587744 0.017730797333946113 -0.4485373459274089 0.017730797332893095 -0.44853734592637823 0.8889243658763748 0.12010844722603277
20.496993987975955 0.8965132383543696 -0.03709241072528745 0.014616277083416673 -0.4455405627811735 0.014616277082382056 -0.4455405627801338 0.8911616270412652 0.11497284362766792
20.635270541082168 0.8977229763132498 -0.043642601285798305 0.011552722348873307 -0.44254306587006775 0.011552722347857147 -0.44254306586901965 0.8933428945983006 0.10983229031699474
20.77354709418838 0.8988621783289581 -0.05019254713904706 0.0085394516231721 -0.4395453081052416 0.008539451622174593 -0.43954530810418546 0.8954687539421611 0.10468717162251417
20.911823647294593 0.8999314497828566 -0.056741763487038605 0.005575791940913205 -0.4365477263193045 0.005575791939934349 -0.43654772631824046 0.8975397811790118 0.09953785610397027
21.050100200400802 0.9009313859038557 -0.06328978118526615 0.0026610788901006432 -0.43355074180110736 0.002661078889140578 -0.43355074180003594 0.8995565430942836 0.09438469705921052
21.188376753507015 0.9018625717531722 -0.0698361461859109 -0.00020534338592440027 -0.4305547608152616 -0.00020534338686564735 -0.43055476081418326 0.9015195971292858 0.08922803301649833
21.326653306613228 0.9027255822184214 -0.07638041899647481 -0.0030241221956585906 -0.42756017510672534 -0.003024122196580853 -0.4275601751056402 0.9034294913660488 0.08406818821260342
21.46492985971944 0.9035209820164195 -0.0829221741534899 -0.005795896315133026 -0.4245673623908004 -0.005795896316036414 -0.42456736238970916 0.9052867645198345 0.07890547305699515
21.603206412825653 0.9042493257041112 -0.08946099971093231 -0.008521296011573143 -0.42157668682887767 -0.008521296012457491 -0.42157668682778004 0.907091945938751 0.07374018458246547
21.741482965931866 0.9049111576970649 -0.09599649674299596 -0.011200943074495318 -0.41858849949026417 -0.011200943075360681 -0.41858849948916094 0.9088455556099837 0.06857260688250595
21.87975951903808 0.9055070122950024 -0.10252827886085655 -0.01383545085374241 -0.41560313880043487 -0.013835450854588677 -0.41560313879932637 0.9105481041721335 0.06340301153576165
22.01803607214429 0.9060374137138683 -0.10905597174307975 -0.016425424303983 -0.41262093097603497 -0.016425424304810254 -0.41262093097492136 0.9122000929332096 0.058231658017882264
22.156312625250504 0.9065028761239622 -0.11557921267931588 -0.018971460035229912 -0.40964219044696587 -0.01897146003603796 -0.4096421904458478 0.9138020138938318 0.053058794101091704
22.294589178356716 0.9069039036936826 -0.12209765012693248 -0.021474146368953867 -0.4066672202658843 -0.02147414636974282 -0.40666722026476176 0.9153543497752383 0.047884656241788046
22.43286573146293 0.9072409906384667 -0.12861094328024344 -0.023934063399394426 -0.4036963125054306 -0.023934063400164268 -0.4036963125043042 0.9168575740516872 0.04270946995648873
22.57114228456914 0.9075146212745151 -0.13511876165198983 -0.02635178305969027 -0.4007297486435151 -0.026351783060440975 -0.40072974864238514 0.9183121509868932 0.03753345018642642
22.709418837675354 0.9077252700769272 -0.1416207846667379 -0.028727869192473013 -0.3977677999369666 -0.028727869193204636 -0.3977677999358333 0.9197185356741415 0.032356801651102954
22.847695390781567 0.9078734017418918 -0.148116701265862 -0.03106287762459055 -0.39481072778385934 -0.031062877625303062 -0.3948107277827231 0.9210771740797439 0.02717971919109683
22.98597194388778 0.907959471252591 -0.15460620952378706 -0.03335735624564126 -0.39185878407482233 -0.03335735624633468 -0.3918587840736833 0.9223885030895181 0.02200238810042364
23.124248496993992 0.9079839239485007 -0.16108901627516756 -0.03561184509002413 -0.388912211533627 -0.03561184509069862 -0.38891221153248584 0.9236529505580005 0.016824984448736126
23.262525050100205 0.9079471955977854 -0.16756483675269007 -0.037826876422221475 -0.38597124404734956 -0.03782687642287695 -0.38597124404620625 0.9248709353600978 0.011647675393649956
23.400801603206418 0.9078497124725068 -0.17403339423518505 -0.04000297482505216 -0.3830361069863976 -0.04000297482568882 -0.3830361069852529 0.9260428674449203 0.006470619483477852
23.53907815631263 0.9076918914263769 -0.18049441970575156 -0.04214065729064806 -0.3801070175146793 -0.04214065729126579 -0.3801070175135328 0.9271691478915365 0.0012939669506409346
23.67735470941884 0.9074741399748042 -0.186947651519585 -0.04424043331391844 -0.3771841848901951 -0.04424043331451741 -0.3771841848890477 0.928250168966414 -0.0038821400039659726
23.815631262525056 0.9071968563770019 -0.19339283508122804 -0.046302804988286914 -0.3742678107563227 -0.046302804988867075 -0.3742678107551746 0.9292863141823238 -0.0090575669353977
23.953907815631265 0.906860429719925 -0.19982972253094788 -0.04832826710349339 -0.37135808942405785 -0.048328267104054856 -0.37135808942290943 0.9302779583584879 -0.014232186887606232
24.09218436873748 0.9064652400038398 -0.20625807243996863 -0.050317307245271684 -0.3684552081454706 -0.05031730724581464 -0.3684552081443223 0.9312254676817778 -0.019405880134667403
24.23046092184369 0.9060116582293225 -0.2126776495142742 -0.05227040589672023 -0.36555934737863277 -0.05227040589724469 -0.36555934737748447 0.9321291997687671 -0.024578533930027388
24.368737474949906 0.9055000464855001 -0.21908822430672978 -0.05418803654120191 -0.3626706810442536 -0.054188036541707896 -0.3626706810431059 0.932989503728462 -0.029750042263542276
24.507014028056116 0.9049307580393718 -0.22548957293723465 -0.05607066576661253 -0.35978937677428025 -0.05607066576710028 -0.35978937677313366 0.9338067202255425 -0.03492030562605648
24.64529058116233 0.9043041374260371 -0.23188147682068427 -0.0579187533708761 -0.3569155961526785 -0.05791875337134553 -0.3569155961515326 0.9345811815439538 -0.040089230781308834
24.78356713426854 0.9036205205396891 -0.23826372240245433 -0.05973275246852561 -0.3540494949486376 -0.059732752468976955 -0.354049494947493 0.9353132116506957 -0.04525673054492103
24.921843687374757 0.9028802347252203 -0.24463610090119672 -0.061513109598248614 -0.3511912233424132 -0.06151310959868214 -0.3511912233412704 0.9360031262596703 -0.05042272357026413
25.060120240480966 0.9020835988703233 -0.25099840805868384 -0.06326026483127654 -0.34834092614402723 -0.06326026483169214 -0.3483409261428865 0.9366512328954545 -0.05558713414097821
25.19839679358718 0.9012309234979492 -0.25735044389648654 -0.0649746518805097 -0.34549874300503425 -0.06497465188090759 -0.3454987430038957 0.9372578309568742 -0.0607498919699424
25.33667334669339 0.9003225108590142 -0.2636920124792438 -0.06665669821027875 -0.342664808623561 -0.06665669821065909 -0.34266480862242504 0.9378232117802501 -0.06591093200448365
25.474949899799604 0.8993586550252486 -0.270022921684322 -0.06830682514664821 -0.33983925294281564 -0.06830682514701114 -0.33983925294168255 0.9383476587022197 -0.07107019423763439
25.613226452905817 0.8983396419820834 -0.27634298297762666 -0.06992544798817803 -0.3370222013432606 -0.06992544798852372 -0.3370222013421306 0.9388314471220173 -0.07622762352523443
25.751503006012026 0.8972657497214872 -0.2826520111953784 -0.07151297611706425 -0.33421377482863646 -0.07151297611739271 -0.3342137748275098 0.9392748445631158 -0.08138316940869736
25.88977955911824 0.896137248334663 -0.2889498243316302 -0.0730698131105861 -0.3314140902060202 -0.07306981311089766 -0.3314140902048971 0.9396781107341414 -0.08653678594325055
26.02805611222445 0.894954400104525 -0.29523624333134363 -0.07459635685279672 -0.32862326026009026 -0.07459635685309154 -0.32862326025897093 0.9400414975889619 -0.09168843153147266
26.16633266533066 0.8937174595978833 -0.3015110918888123 -0.07609299964639449 -0.3258413939217764 -0.07609299964667264 -0.3258413939206613 0.9403652493858761 -0.09683806876195089
26.304609218436877 0.892426673757267 -0.30777419625126473 -0.07756012832472492 -0.3230685964314497 -0.07756012832498657 -0.32306859643033886 0.9406496027458201 -0.10198566425289209
26.442885771543086 0.8910822819923253 -0.31402538502743843 -0.07899812436386117 -0.32030496949682535 -0.07899812436410661 -0.32030496949571935 0.9408947867095123 -0.1071311885005151
26.581162324649302 0.8896845162707412 -0.3202644890009723 -0.08040736399472376 -0.3175506114457233 -0.08040736399495314 -0.317550611444622 0.9411010227934741 -0.11227461573207115
26.71943887775551 0.888233601208612 -0.326491340948421 -0.08178821831519736 -0.31480561737384194 -0.0817882183154109 -0.3148056173727458 0.9412685250448575 -0.11741592376332548
26.857715430861727 0.8867297541602452 -0.3327057754617347 -0.08314105340221342 -0.3120700792876901 -0.08314105340241121 -0.31207007928659913 0.9413975000950072 -0.12255509386035668
26.995991983967937 0.8851731853073245 -0.3389076287750337 -0.08446623042376836 -0.3093440862428164 -0.0844662304239506 -0.309344086241731 0.9414881472117115 -0.12769211060551605
27.134268537074153 0.8835640977474049 -0.34509673859552104 -0.08576410575085275 -0.30662772447747116 -0.08576410575101955 -0.3066277244763916 0.9415406583500769 -0.13282696176740746
27.272545090180362 0.8819026875816992 -0.35127294393836933 -0.08703503106926798 -0.30392107754183595 -0.08703503106941989 -0.30392107754076236 0.9415552182019717 -0.1379596381747436
27.410821643286578 0.8801891440021241 -0.3574360849654436 -0.08827935349131714 -0.3012242264229371 -0.0882793534914541 -0.30122422642186963 0.9415320042439907 -0.14309013359394124
27.54909819639279 0.8784236493775767 -0.3635860028276933 -0.08949741566735114 -0.29853724966538 -0.0894974156674734 -0.2985372496643189 0.9414711867838896 -0.14821844461032238
27.687374749499 0.8766063793394133 -0.36972253951108175 -0.09068955589716414 -0.295860223488007 -0.09068955589727198 -0.2958602234869525 0.9413729290054447 -0.1533445705127871
27.825651302605216 0.8747375028660977 -0.3758455376859176 -0.09185610824122722 -0.29319322189659924 -0.09185610824132084 -0.29319322189555136 0.9412373870116881 -0.15846851318183724
27.963927855711425 0.872817182367018 -0.38195484055942974 -0.09299740263175876 -0.2905363167927304 -0.09299740263183842 -0.29053631679168945 0.9410647098664837 -0.16359027698081716
28.10220440881764 0.870845573765429 -0.38805029173147726 -0.0941137649836287 -0.28788957807887755 -0.09411376498369453 -0.2878895780778439 0.940855039634392 -0.1687098686502615
28.24048096192385 0.8688228265805209 -0.39413173505324894 -0.09520551730509857 -0.28525307375988324 -0.09520551730515091 -0.285253073758857 0.9406085114187928 -0.1738272972052206
28.378757515030067 0.8667490840085934 -0.40019901448883055 -0.09627297780840169 -0.2826268700408755 -0.09627297780844085 -0.28262687003985676 0.9403252533982231 -0.17894257383545942
28.517034068136276 0.8646244830033245 -0.4062519739795195 -0.09731646102017014 -0.2800110314217269 -0.09731646102019618 -0.28001103142071543 0.9400053868608957 -0.18405571180840616
28.655310621242492 0.862449154355119 -0.412290457310761 -0.09833627789171599 -0.2774056207881493 -0.09833627789172922 -0.2774056207871459 0.9396490262373542 -0.18916672637475274
28.7935871743487 0.8602232227695413 -0.4183143079815929 -0.09933273590918217 -0.2748106994995049 -0.09933273590918282 -0.27481069949850917 0.9392562791312441 -0.19427563467658882
28.931863727454918 0.8579468069448052 -0.4243233690764865 -0.10030613920357123 -0.27222632747341424 -0.10030613920355966 -0.2722263274724267 0.9388272463481436 -0.19938245565797189
29.070140280561127 0.8556200196483401 -0.4303174831394628 -0.10125678866067253 -0.2696525632672393 -0.10125678866064891 -0.2696525632662602 0.9383620219224454 -0.20448720997782838
29.208416833667343 0.8532429677924093 -0.43629649205039167 -0.10218498203090204 -0.26708946415651325 -0.10218498203086657 -0.2670894641555425 0.9378606931422337 -0.2095899199250859
29.346693386773552 0.8508157525087926 -0.4422602369033489 -0.10309101403907736 -0.2645370862103888 -0.10309101403903037 -0.26453708620942634 0.9373233405721356 -0.21469060933593714
29.484969939879765 0.8483384692225213 -0.4482085578869431 -0.10397517649414653 -0.2619954843641682 -0.1039751764940883 -0.26199548436321457 0.9367500380741098 -0.21978930351314246
29.623246492985977 0.8458112077246767 -0.45414129416650223 -0.10483775839889697 -0.2594647124889798 -0.10483775839882782 -0.2594647124880348 0.93614085282614 -0.22488602914727301
29.76152304609219 0.8432340522442444 -0.46005828376802643 -0.10567904605966692 -0.2569448234586579 -0.10567904605958708 -0.25694482345772146 0.9354958453387998 -0.22998081423980604
29.899799599198403 0.8406070815190356 -0.46595936346380173 -0.10649932319608843 -0.2544358692138834 -0.10649932319599795 -0.2544358692129564 0.9348150694696606 -0.2350736880279763
30.038076152304615 0.8379303688656699 -0.47184436865959273 -0.10729887105088812 -0.25193790082363754 -0.10729887105078752 -0.2519379008227194 0.9340985724354969 -0.24016468091130205
30.176352705410824 0.8352039822486308 -0.47771313328330767 -0.10807796849977772 -0.24945096854401222 -0.10807796849966725 -0.2494509685431031 0.9333463948222713 -0.24525382437968696
30.31462925851704 0.8324279843483989 -0.48356548967505886 -0.1088368921614645 -0.24697512187443135 -0.10883689216134444 -0.24697512187353146 0.9325585705928531 -0.25034115094302556
30.45290581162325 0.8296024326286627 -0.4894012684785134 -0.10957591650781356 -0.24451040961131554 -0.10957591650768404 -0.24451040961042486 0.9317351270924434 -0.25542669406221025
30.591182364729466 0.826727379402622 -0.49522029853346133 -0.11029531397419967 -0.24205687989923666 -0.11029531397406109 -0.24205687989835542 0.9308760850516643 -0.26051048808147415
30.729458917835675 0.8238028718983859 -0.5010224067695066 -0.11099535507007972 -0.23961458027959254 -0.11099535506993234 -0.23961458027872068 0.9299814585872834 -0.2655925681619673
30.86773547094189 0.820828952323473 -0.5068074181008007 -0.11167630848982765 -0.23718355773683564 -0.1116763084896717 -0.23718355773597327 0.9290512552005317 -0.2706729702165044
31.0060120240481 0.8178056579284276 -0.5125751553217303 -0.1123384412238653 -0.23476385874228445 -0.11233844122370111 -0.2347638587414319 0.9280854757729816 -0.2757517308453813
31.144288577154317 0.8147330210695508 -0.5183254390034842 -0.11298201867013405 -0.2323555292955446 -0.1129820186699619 -0.23235552929470138 0.9270841145599417 -0.28082888727320054
31.282565130260526 0.8116110692707721 -0.5240580873914114 -0.11360730474594304 -0.22995861496355707 -0.11360730474576305 -0.22995861496272355 0.9260471591813318 -0.2859044772866056
31.420841683366742 0.8084398252846497 -0.5297729163030998 -0.11421456200024024 -0.22757316091730048 -0.11421456200005294 -0.2275731609164765 0.9249745906099942 -0.2909785391728628
31.55911823647295 0.8052193071525291 -0.5354697390270821 -0.11480405172634767 -0.225199211966154 -0.11480405172615335 -0.22519921196533985 0.9238663831574034 -0.2960511116591942
31.697394789579167 0.8019495282638612 -0.5411483662221117 -0.11537603407520626 -0.22283681258994092 -0.11537603407500496 -0.22283681258913624 0.9227225044567264 -0.3011222338527966
31.835671342685377 0.7986304974146886 -0.5468086058169102 -0.11593076816917448 -0.2204860069686569 -0.11593076816896668 -0.22048600696786194 0.9215429154431893 -0.3061919451814568
31.97394789579159 0.7952622188653168 -0.5524502629103246 -0.11646851221643155 -0.21814683900989168 -0.11646851221621744 -0.21814683900910659 0.9203275703317062 -0.31126028533468864
32.1122244488978 0.7918446923971781 -0.5580731396718132 -0.11698952362602874 -0.21581935237394534 -0.11698952362580857 -0.21581935237316988 0.9190764165917149 -0.3163272942053118
32.250501002004015 0.7883779133689006 -0.5636770352421829 -0.11749405912364205 -0.21350359049663686 -0.11749405912341643 -0.21350359049587098 0.9177893949191813 -0.32139301183139235
32.388777555110224 0.7848618727715905 -0.5692617456345079 -0.11798237486807436 -0.21119959660980414 -0.11798237486784317 -0.21119959660904797 0.9164664392057049 -0.32645747833846117
32.52705410821644 0.7812965572833473 -0.5748270636351502 -0.11845472656856004 -0.20890741375948219 -0.11845472656832368 -0.20890741375873587 0.9151074765046833 -0.331520733881935
32.66533066132265 0.7776819493230133 -0.5803727787048093 -0.11891136960292446 -0.2066270848217547 -0.1189113696026832 -0.20662708482101802 0.9137124269944796 -0.3365828185896539
32.803607214428865 0.7740180271031769 -0.5858986768795273 -0.11935255913665306 -0.2043586525162563 -0.11935255913640713 -0.2043586525155292 0.9122812039385231 -0.3416437725044531
32.941883767535074 0.7703047646824381 -0.5914045406715728 -0.11977855024292361 -0.20210215941731252 -0.11977855024267343 -0.20210215941659493 0.9108137136422927 -0.3467036355266856
33.08016032064129 0.766542132016949 -0.5968901489701292 -0.12018959802366042 -0.19985764796269423 -0.12018959802340623 -0.19985764796198613 0.9093098554071206 -0.35176244735661155
33.2184368737475 0.7627300950112423 -0.6023552769417162 -0.12058595773166589 -0.19762516045995493 -0.12058595773140787 -0.1976251604592561 0.9077695214807484 -0.35682024743656615
33.356713426853716 0.7588686155683584 -0.6077996959302593 -0.1209678848938898 -0.1954047390903299 -0.12096788489362838 -0.19540473908964073 0.9061925970045593 -0.3618770748928172
33.494989979959925 0.7549576516392835 -0.613223173356743 -0.12133563543589534 -0.19319642591015457 -0.12133563543563049 -0.19319642590947447 0.904578959957432 -0.3669329684770255
33.63326653306614 0.7509971572717109 -0.6186254726183643 -0.1216894658075819 -0.19100026284976634 -0.12168946580731432 -0.1910002628490958 0.9029284810961343 -0.37198796650721366
33.77154308617235 0.7469870826581401 -0.6240063529871055 -0.12202963311023193 -0.1888162917098539 -0.12202963310996151 -0.1888162917091924 0.9012410238921756 -0.3770421068081485
33.90981963927857 0.7429273741833217 -0.6293655695076612 -0.12235639522493685 -0.18664455415519351 -0.12235639522466396 -0.186644554154541 0.8995164444650477 -0.3820954266510445
34.048096192384776 0.738817974471064 -0.6347028728946215 -0.12267001094247569 -0.18448509170573654 -0.12267001094220058 -0.18448509170509306 0.897754591511768 -0.38714796269248497
34.18637274549099 0.7346588224304123 -0.6400180094288485 -0.12297074009470554 -0.1823379457249816 -0.12297074009442856 -0.18233794572434692 0.8959553062326387 -0.39219975091246106
34.3246492985972 0.7304498533012128 -0.6453107208529529 -0.12325884368753592 -0.18020315740557608 -0.12325884368725734 -0.18020315740495021 0.8941184222531324 -0.39725082655142574
34.46292585170342 0.7261909986990778 -0.6505807442657913 -0.12353458403555251 -0.17808076775207887 -0.12353458403527247 -0.17808076775146195 0.8922437655418188 -0.40230122404625035
34.60120240480963 0.7218821866597559 -0.6558278120158983 -0.12379822489835918 -0.17597081756081917 -0.12379822489807796 -0.1759708175602106 0.8903311543242217 -0.4073509769649774
34.73947895791584 0.7175233416829315 -0.6610516515937713 -0.12405003161871353 -0.17387334739676757 -0.12405003161843137 -0.17387334739616753 0.8883803989925257 -0.41240011794024894
34.87775551102205 0.7131143847754579 -0.6662519855229099 -0.12429027126252326 -0.17178839756734882 -0.12429027126224038 -0.1717883975667569 0.8863913020110119 -0.4174486786012969
35.01603206412827 0.7086552334940412 -0.6714285312495286 -0.12451921276077946 -0.16971600809310072 -0.1245192127604961 -0.16971600809251713 0.8843636578171263 -0.42249668950436603
35.15430861723448 0.7041458019873851 -0.6765810010308447 -0.12473712705350054 -0.16765621867509534 -0.1247371270532169 -0.1676562186745197 0.882297252718061 -0.42754418006144557
35.29258517034069 0.6995860010378202 -0.681709101821851 -0.12494428723576331 -0.16560906865901626 -0.1249442872354797 -0.16560906865844843 0.8801918647827448 -0.43259117846717493
35.4308617234469 0.694975738102412 -0.6868125351604669 -0.12514096870589736 -0.1635745969957963 -0.12514096870561392 -0.1635745969952363 0.8780472637291042 -0.43763771162378406
35.5 0.6926516535711055 -0.689354906755849 -0.1252354666526644 -0.1625621276002481 -0.1252354666523811 -0.1625621275996919 0.8769601840074543 -0.4401608117682769
35.56913827655311 0.6903149173535857 -0.6918909970509768 -0.1253274493159228 -0.1615528421986987 -0.12532744931563983 -0.16155284219814628 0.8758632108064869 -0.4426838050639248
35.70741482965933 0.6856034397192656 -0.6969441778456467 -0.12550400952430837 -0.15954384229672672 -0.12550400952402602 -0.1595438422961817 0.8736394586731103 -0.4477294828712437
35.84569138276553 0.6808412029225515 -0.7019717621244126 -0.1256709325511341 -0.15754763478423867 -0.1256709325508526 -0.15754763478370104 0.8713757512684004 -0.45277476759853996
35.98396793587175 0.6760281015209413 -0.7069734285725331 -0.12582850453573782 -0.15556425656663586 -0.12582850453545733 -0.1555642565661053 0.8690718236800854 -0.45781968018334246
36.122244488977955 0.6711640269451307 -0.7119488498560884 -0.1259770146969301 -0.15359374390198272 -0.12597701469665087 -0.15359374390145883 0.8667274020058944 -0.46286423986073855
36.26052104208418 0.6662488675373888 -0.7168976924952133 -0.12611675549586276 -0.15163613233841589 -0.126116755495585 -0.15163613233789902 0.8643422032097176 -0.4679084640732746
36.39879759519038 0.6612825085895386 -0.7218196167349361 -0.12624802280163422 -0.14969145664718314 -0.126248022801358 -0.1496914566466728 0.861915934972065 -0.47295236837774196
36.5370741482966 0.6562648323805604 -0.7267142764135013 -0.1263711160597214 -0.1477597507511531 -0.126371116059447 -0.14775975075064912 0.8594482955346684 -0.4779959663486516
36.675350701402806 0.6511957182138336 -0.7315813188280457 -0.1264863384633243 -0.14584104764861666 -0.12648633846305174 -0.14584104764811862 0.8569389735390588 -0.4830392694781952
36.81362725450902 0.6460750424540401 -0.7364203845974896 -0.12659399712771197 -0.1439353793322054 -0.12659399712744165 -0.14393537933171344 0.854387647858948 -0.48808228707247975
36.95190380761523 0.6409026785637549 -0.741231107522505 -0.12669440326766096 -0.14204277670272758 -0.1266944032673929 -0.14204277670224158 0.8517939874262261 -0.4931250261438017
37.09018036072145 0.6356784971397351 -0.7460131144424093 -0.12678787237807568 -0.1401632694777279 -0.1267878723778101 -0.14016326947724722 0.8491576510504019 -0.49816749129873983
37.22845691382766 0.6304023659489519 -0.7507660250888408 -0.12687472441788383 -0.13829688609454832 -0.12687472441762088 -0.13829688609407306 0.8464782872312919 -0.5032096846218032
37.36673346693387 0.6250741499643699 -0.7554894519360476 -0.12695528399729805 -0.136443653607675 -0.1269552839970378 -0.13644365360720495 0.8437555339647484 -0.5082516055543881
37.50501002004008 0.6196937114005217 -0.7601830000476332 -0.12702988056853656 -0.1346035975801304 -0.12702988056827913 -0.1346035975796651 0.8409890185412412 -0.5132932507687582
37.6432865731463 0.6142609097488912 -0.7648462669195853 -0.12709884862009924 -0.1327767419686609 -0.12709884861984472 -0.13277674196820058 0.8381783573370578 -0.5183346140367739
37.78156312625251 0.6087756018131594 -0.7694788423194 -0.12716252787468932 -0.13096310900246547 -0.12716252787443794 -0.1309631090020096 0.8353231555979267 -0.5233756860930533
37.919839679358724 0.603237641744317 -0.7740803081211333 -0.1272212634908784 -0.12916271905518087 -0.12722126349063026 -0.12916271905472929 0.8324230072148151 -0.528416454492263
38.05811623246493 0.5976468810757194 -0.7786502381361617 -0.12727540626860695 -0.1273755905098443 -0.12727540626836212 -0.1273755905093969 0.8294774944916834 -0.5334569034601895
38.19639278557115 0.5920031687580894 -0.7831881979394733 -0.12732531285861753 -0.12560173961652188 -0.1273253128583761 -0.12560173961607835 0.8264861879049459 -0.5384970137382522
38.33466933867736 0.5863063511945401 -0.7876937446912521 -0.12737134597591185 -0.12384118034228742 -0.12737134597567393 -0.1238411803418474 0.8234486458543925 -0.5435367624210723
38.472945891783574 0.5805562722756445 -0.7921664269535593 -0.12741387461732906 -0.12209392421321309 -0.12741387461709458 -0.12209392421277639 0.8203644144053102 -0.5485761227867242
38.61122244488978 0.5747527734146217 -0.7966057845018583 -0.12745327428333564 -0.12035998014801985 -0.12745327428310482 -0.12035998014758656 0.8172330270215455 -0.5536150641192388
38.749498997996 0.5688956935826796 -0.801011348131155 -0.1274899272041216 -0.11863935428301844 -0.12748992720389454 -0.11863935428258808 0.8140540042892244 -0.55865355152294
38.88777555110221 0.562984869344585 -0.8053826394564932 -0.12752422257009224 -0.11693204978794261 -0.1275242225698689 -0.11693204978751477 0.8108268536308597 -0.5636915457281444
39.026052104208425 0.5570201348945302 -0.8097191707075474 -0.12755655676684707 -0.11523806667227336 -0.12755655676662758 -0.11523806667184815 0.8075510690095463 -0.5687290028877507
39.164328657314634 0.5510013220923543 -0.8140204445170274 -0.12758733361473168 -0.1135574015816156 -0.12758733361451602 -0.11355740158119287 0.8042261306229517 -0.5737658743641993
39.30260521042085 0.5449282605002106 -0.8182859537026126 -0.12761696461304983 -0.11189004758367768 -0.12761696461283797 -0.11189004758325673 0.8008515045867918 -0.5788021065062732
39.44088176352706 0.53880077741976 -0.8225151810421114 -0.1276458691890163 -0.11023599394337158 -0.12764586918880844 -0.11023599394295232 0.7974266426074764 -0.5838376404151654
39.579158316633276 0.532618697929977 -0.8267075990415224 -0.12767447495153336 -0.10859522588653947 -0.1276744749513292 -0.10859522588612205 0.7939509816436063 -0.5888724116992158
39.717434869739485 0.5263818449256825 -0.8308626696956748 -0.12770321794986156 -0.10696772435177061 -0.1277032179496614 -0.10696772435135457 0.7904239435559799 -0.5939063502166819
39.855711422845694 0.5200900391568922 -0.8349798442410955 -0.12773254293726224 -0.1053534657297631 -0.12773254293706582 -0.10535346572934823 0.7868449347457767 -0.5989393798058803
39.99398797595191 0.513743099269121 -0.8390585629007329 -0.12776290363967208 -0.10375242158963732 -0.12776290363947965 -0.10375242158922347 0.783213345780567 -0.6039714180019803
40.13226452905812 0.507340841844753 -0.8430982546201715 -0.12779476302947473 -0.10216455839159927 -0.1277947630292861 -0.10216455839118628 0.779528551007789 -0.609002375739717
40.270541082164335 0.5008830814456262 -0.8470983367949194 -0.12782859360442145 -0.10058983718529921 -0.1278285936042366 -0.10058983718488662 0.7757899081553287 -0.6140321570412189
40.408817635270545 0.49436963065698614 -0.8510582149883644 -0.12786487767174765 -0.09902821329321557 -0.1278648776715665 -0.09902821329280342 0.7719967579188327 -0.6190606586881301
40.547094188376754 0.487800300132963 -0.8549772826399522 -0.12790410763752363 -0.09747963597834514 -0.12790410763734622 -0.09747963597793297 0.7681484235353689 -0.6240877698771292
40.68537074148297 0.48117489864376567 -0.8588549207631329 -0.1279467863012692 -0.09594404809545626 -0.12794678630109546 -0.095944048095044 0.7642442103430557 -0.6291133718579252
40.82364729458918 0.47449323312477565 -0.8626904976325883 -0.12799342715584971 -0.09442138572511069 -0.12799342715567955 -0.0944213857246983 0.7602834053262624 -0.6341373375527313
40.961923847695395 0.4677551087277576 -0.8664833684602432 -0.12804455469265874 -0.092911577789632 -0.12804455469249215 -0.09291157778921938 0.7562652766459768 -0.6391595311561817
41.100200400801604 0.4609603288744195 -0.8702328750595252 -0.128100704712085 -0.09141454565013896 -0.12810070471192167 -0.09141454564972587 0.7521890731549484 -0.6441798077145768
41.23847695390782 0.4541086953125667 -0.8739383454973256 -0.12816242463923627 -0.0899302026837407 -0.12816242463907626 -0.08993020268332647 0.7480540238971841 -0.6491980126832961
41.37675350701403 0.4472000081751286 -0.8775990937330772 -0.12823027384488747 -0.08845845383991377 -0.12823027384473074 -0.0884584538394983 0.7438593375913983 -0.6542139814611312
41.515030060120246 0.4402340660423456 -0.8812144192443462 -0.12830482397159487 -0.0869991951750584 -0.12830482397144116 -0.086999195174642 0.739604202097991 -0.6592275389002407
41.653306613226455 0.43321066600744007 -0.8847836066382965 -0.12838665926489953 -0.0855523133641613 -0.12838665926474885 -0.08555231336374378 0.7352877838691465 -0.6642384987903275
41.79158316633267 0.4261296037461248 -0.8883059252483638 -0.12847637690952374 -0.08411768518844417 -0.1284763769093759 -0.08411768518802516 0.7309092273816327 -0.6692466633155776
41.92985971943888 0.4189906735903135 -0.8917806287154415 -0.12857458737043495 -0.08269517699781113 -0.12857458737028993 -0.08269517699739087 0.7264676545518867 -0.6742518224828049
42.0681362725451 0.4117936686064579 -0.8952069545528454 -0.12868191473862933 -0.08128464414686502 -0.12868191473848667 -0.08128464414644282 0.721962164132983 -0.6792537535191504
42.206412825651306 0.4045383806789454 -0.8985841236942945 -0.12879899708145037 -0.07988593040316988 -0.12879899708131032 -0.07988593040274594 0.7173918310930734 -0.6842522202375981
42.34468937875752 0.3972246005990472 -0.9019113400241028 -0.12892648679723417 -0.07849886732639813 -0.12892648679709623 -0.07849886732597208 0.7127557059748971 -0.6892469723684552
42.48296593186373 0.3898521181599309 -0.9051877898887509 -0.12906505097402418 -0.07712327361690499 -0.12906505097388848 -0.0771232736164773 0.7080528142359893 -0.6942377448548418
42.62124248496995 0.38242072225832013 -0.9084126415889525 -0.12921537175207148 -0.0757589544322177 -0.1292153717519376 -0.07575895443178747 0.7032821555691985 -0.6992242571101169
42.75951903807616 0.37493020100340135 -0.9115850448513004 -0.12937814668977693 -0.07440570066982657 -0.12937814668964484 -0.0744057006693944 0.6984427032031713 -0.7042062122350452
42.89779559118237 0.367380341833657 -0.9147041302785361 -0.1295540891327001 -0.07306328821460945 -0.12955408913256958 -0.07306328821417513 0.6935334031824503 -0.7091832961923733
43.03607214428858 0.3597709316423441 -0.9177690087774352 -0.12974392858518793 -0.0717314771490989 -0.12974392858505882 -0.07173147714866246 0.6885531736268908 -0.7141551769363557
43.1743486973948 0.35210175691240186 -0.9207787709632586 -0.12994841108413316 -0.07041001092474697 -0.12994841108400518 -0.07041001092430854 0.6835009039701022 -0.7191215034946103
43.31262525050101 0.34437260386164326 -0.9237324865396801 -0.13016829957429493 -0.06909861549221111 -0.13016829957416814 -0.06909861549177006 0.6783754541766652 -0.7240819049995431
43.45090180360722 0.33658325859914906 -0.9266292036530389 -0.13040437428455337 -0.06779699838861414 -0.1304043742844272 -0.06779699838817077 0.6731756539379169 -0.729035989666396
43.58917835671343 0.3287335072938652 -0.9294679482197251 -0.1306574331043821 -0.06650484777959514 -0.1306574331042565 -0.06650484777914929 0.6679003018461425 -0.7339833437148181
43.72745490981965 0.32082313635648185 -0.9322477232254552 -0.1309282919597473 -0.0652218314538891 -0.13092829195962208 -0.06522183145344124 0.6625481645470545 -0.7389235302306592
43.86573146292586 0.31285193263577316 -0.9349675079951327 -0.13121778518753874 -0.06394759576802228 -0.13121778518741378 -0.06394759576757206 0.6571179758705155 -0.743856087964492
44.004008016032074 0.30481968363066314 -0.9376262574319422 -0.13152676590754137 -0.0626817645386154 -0.1315267659074163 -0.06268176453816299 0.6516084359395231 -0.7487805300631647
44.14228456913828 0.29672617771939036 -0.940222901224265 -0.131856106390843 -0.06142393787964294 -0.13185610639071763 -0.06142393787918836 0.6460182102575541 -0.7536963427304544
44.2805611222445 0.28857120440726763 -0.9427563430189482 -0.13220669842344746 -0.060173690981870066 -0.13220669842332178 -0.060173690981413265 0.6403459287744496 -0.7586029838126711
44.41883767535071 0.280354554594644 -0.945225459559406 -0.13257945366373275 -0.058930572831538186 -0.1325794536636063 -0.05893057283107951 0.6345901849311453 -0.7634998813048012
44.557114228456925 0.2720760208668167 -0.9476290997869572 -0.1329753039922391 -0.05769410486524239 -0.13297530399211177 -0.05769410486478181 0.6287495346836386 -0.7683864317725246
44.695390781563134 0.2637353978077846 -0.9499660839037576 -0.13339520185212236 -0.05646377955776899 -0.1333952018519939 -0.056463779557306984 0.6228224955067301 -0.7732619986851585
44.83366733466934 0.2553324823398839 -0.9522352023956254 -0.13384012057841568 -0.055239058939517145 -0.13384012057828593 -0.055239058939053315 0.6168075453782269 -0.77812591065429
44.97194388777556 0.24686707409152114 -0.9544352150129816 -0.13431105471406646 -0.054019373039956506 -0.13431105471393506 -0.05401937303949122 0.6107031217444359 -0.7829774595725423
45.0 0.24514181109636116 -0.954873047768081 -0.13440987197086043 -0.053772461472869855 -0.1344098719707289 -0.0537724614724047 0.6094534813089136 -0.783960256909192
45.11022044088177 0.23833897579540952 -0.9565648497080791 -0.1348090203104932 -0.05280411825340538 -0.13480902031036018 -0.05280411825293939 0.6045076204679912 -0.7878158986466048
45.248496993987985 0.22974799371988197 -0.9586228015266403 -0.1353350552101821 -0.05159265562322633 -0.13533505521004724 -0.051592655622759054 0.5982193947592331 -0.7926404403182922
45.386773547094194 0.22109393813609907 -0.9606077314519418 -0.13589021930859044 -0.0503843090403552 -0.13589021930845335 -0.05038430903988739 0.5918367540926082 -0.7974502540670525
45.52505010020041 0.21237662382418382 -0.9625182651993461 -0.13647559479234994 -0.049178363351896646 -0.13647559479221066 -0.04917836335142843 0.5853579631098045 -0.8022444640869383
45.66332665330662 0.20359587062155743 -0.9643529919592216 -0.1370922863504636 -0.04797406237530153 -0.13709228635032203 -0.04797406237483296 0.5787812405116246 -0.8070221468306704
45.801603206412835 0.19475150401702995 -0.966110463086133 -0.13774142135486112 -0.046770606813455184 -0.13774142135471695 -0.046770606812986774 0.5721047579409145 -0.8117823284129754
45.939879759519044 0.1858433557944815 -0.9677891907321442 -0.13842415000632546 -0.045567152065792746 -0.13842415000617858 -0.04556715206532499 0.5653266388592244 -0.8165239818649476
46.07815631262526 0.17687126473028061 -0.9693876464220245 -0.13914164544140564 -0.04436280593033276 -0.13914164544125596 -0.04436280592986584 0.5584449574202699 -0.8212460242306941
46.21643286573147 0.16783507734892306 -0.9709042595681232 -0.13989510379551628 -0.04315662619132026 -0.13989510379536368 -0.043156626190854384 0.5514577373436863 -0.8259473134970508
46.354709418837686 0.15873464874173648 -0.9723374159226351 -0.14068574421695434 -0.04194761808693267 -0.1406857442167988 -0.041947618086468165 0.5443629507930776 -0.83062664534661
46.492985971943895 0.14956984345389052 -0.9736854559649684 -0.1415148088260595 -0.04073473165128937 -0.14151480882590076 -0.04073473165082694 0.5371585172628726 -0.8352827497237838
46.631262525050104 0.14034053644536645 -0.9749466732219125 -0.1423835626131998 -0.03951685892477362 -0.14238356261303772 -0.039516858924313274 0.5298423024791099 -0.8399142872030371
46.76953907815632 0.13104661413199045 -0.9761193125183136 -0.14329329326865634 -0.03829283102645554 -0.1432932932684911 -0.038292831025997856 0.5224121173199325 -0.8445198451478536
46.90781563126254 0.12168797551314578 -0.9772015681559686 -0.14424531093683862 -0.03706141508218344 -0.1442453109366704 -0.03706141508172906 0.5148657167622954 -0.8490979336483585
47.04609218436874 0.11226453339327247 -0.9781915820185043 -0.14524094788654374 -0.035821311001689525 -0.14524094788637215 -0.0358213110012387 0.5072007988622005 -0.8536469812249139
47.184368737474955 0.10277621570484718 -0.9790874416000465 -0.14628155808820084 -0.03457114809785137 -0.14628155808802604 -0.03457114809740486 0.49941500377664905 -0.858165330284306
47.32264529058117 0.09322296694115437 -0.9798871779555847 -0.14736851668820694 -0.033309481541044 -0.14736851668802914 -0.03330948154060232 0.49150591283652206 -0.8626512323144893
47.46092184368739 0.08360474970778095 -0.9805887635710244 -0.1485032193695392 -0.03203478864134044 -0.14850321936935845 -0.03203478864090389 0.4834710476806348 -0.8671028428031374
47.59919839679359 0.07392154640250373 -0.9811901101510767 -0.14968708158683794 -0.030745464951138425 -0.1496870815866543 -0.030745464950707506 0.4753078694624378 -0.8715182158645303
47.737474949899806 0.06417336103397114 -0.9816890663233081 -0.15092153766307648 -0.02943982018065769 -0.15092153766288985 -0.029439820180232827 0.46701377814216083 -0.8758952985585822
47.87575150300602 0.054360221190392466 -0.9820834152568868 -0.15220803973375663 -0.02811607391862382 -0.15220803973356756 -0.02811607391820555 0.45858611187862286 -0.880231924885057
48.014028056112224 0.04448218017032238 -0.9823708721948383 -0.15354805652330628 -0.02677235115038011 -0.15354805652311493 -0.0267723511499693 0.45002214653655737 -0.8845258094352835
48.15230460921844 0.03453931928853357 -0.9825490818989445 -0.15494307193696588 -0.02540667756562274 -0.15494307193677237 -0.02540667756521988 0.44131909532703345 -0.8887745406829267
48.290581162324656 0.024531750370993866 -0.9826156160068024 -0.1563945834499625 -0.02401697464796554 -0.15639458344976712 -0.024016974647571167 0.43247410860051794 -0.8929755738946155
48.42885771543087 0.014459618453983664 -0.9825679703010238 -0.1579041002741527 -0.02260105453861118 -0.15790410027395602 -0.022601054538226223 0.42348427381422027 -0.8971262236405263
48.567134268537075 0.004323104703550018 -0.9824035618910872 -0.15947314128056017 -0.021156614666552165 -0.15947314128036258 -0.021156614666176417 0.4143466156977044 -0.9012236558842945
48.70541082164329 -0.005877570427334167 -0.9821197263089974 -0.1611032326543477 -0.019681232137934518 -0.1611032326541495 -0.01968123213756883 0.4050580966433075 -0.9052648796309752
48.84368737474951 -0.016142143785232377 -0.9817137145206326 -0.16279590525671164 -0.0181723578775653 -0.16279590525651327 -0.018172357877210762 0.3956156173507162 -0.9092467381111492
48.98196392785572 -0.026470305826329005 -0.981182689855519 -0.16455269166599545 -0.016627310515966713 -0.16455269166579756 -0.016627310515623397 0.38601601775809613 -0.9131658994787415
49.12024048096192 -0.03686169662868108 -0.9805237248587545 -0.16637512286793127 -0.015043270015960265 -0.16637512286773448 -0.01504327001562903 0.3762560782955549 -0.9170188469996359
49.25851703406814 -0.04731590158368773 -0.9797337980699447 -0.16826472456237349 -0.013417271033498705 -0.16826472456217859 -0.0134172710331798 0.3663325215003599 -0.9208018687078456
49.39679358717436 -0.05783244674220986 -0.9788097907353156 -0.17022301305113863 -0.01174619600836762 -0.17022301305094592 -0.011746196008061795 0.35624201403736816 -0.9245110465057653
49.535070140280574 -0.06841079378912451 -0.9777484834606561 -0.17225149066862755 -0.010026767981502129 -0.1722514906684382 -0.010026767981209984 0.34598116917245575 -0.9281422446850032
49.67334669338677 -0.07905033461831704 -0.976546552814459 -0.1743516407137507 -0.008255543137014161 -0.17435164071356535 -0.008255543136735967 0.3355465497515267 -0.9316910978444295
49.811623246492985 -0.08975038547832023 -0.9752005678925593 -0.17652492183831217 -0.006428903068662398 -0.1765249218381315 -0.006428903068398838 0.3249346717428202 -0.9351529981825015
49.94989979959921 -0.10051018065686645 -0.9737069868577776 -0.17877276184342294 -0.0045430467724316 -0.17877276184324797 -0.004543046772182594 0.3141420084058912 -0.938523082141588
50.08817635270541 -0.11132886567071396 -0.9720621534705842 -0.18109655083169382 -0.002593982369188428 -0.1810965508315256 -0.0025939823689550244 0.30316499515669115 -0.9417962163830851
50.22645290581162 -0.12220548992505265 -0.9702622936296179 -0.18349763365891836 -0.0005775185640844692 -0.1834976336587579 -0.0005775185638665428 0.2920000352048096 -0.944966983073522
50.364729458917836 -0.13313899880478666 -0.9683035119440949 -0.18597730162467946 0.0015107441474676957 -0.18597730162452783 0.0015107441476697146 0.280643506046018 -0.9480296644638155
50.503006012024045 -0.14412822515788454 -0.9661817883637388 -0.18853678333681506 0.0036754225137292477 -0.18853678333667345 0.0036754225139153177 0.26909176690099473 -0.9509782267462666
50.64128256513026 -0.1551718801289713 -0.9638929748959101 -0.19117723467995973 0.005921359782703292 -0.1911772346798295 0.005921359782873236 0.25734116719930494 -0.9538063031770636
50.77955911823647 -0.1662685432992778 -0.961432792444148 -0.19389972781346443 0.008253635157625856 -0.1938997278133466 0.00825363515777942 0.24538805621661747 -0.9565071764558972
50.91783567134269 -0.17741665208709895 -0.958796827807432 -0.19670523911888266 0.01067757342348875 -0.19670523911877874 0.010677573423625943 0.23322879398258967 -0.9590737603590729
51.056112224448896 -0.18861449036106015 -0.9559805308851366 -0.19959463601196736 0.013198754709705749 -0.19959463601187843 0.013198754709826663 0.22085976358695936 -0.961498580628231
51.19438877755511 -0.19986017621679852 -0.9529792121389977 -0.20256866252873545 0.015823024346574815 -0.20256866252866298 0.015823024346679617 0.20827738502210152 -0.9637737551237049
51.33266533066132 -0.21115164886617865 -0.9497880403704482 -0.20562792358973236 0.01855650276472228 -0.20562792358967796 0.018556502764811408 0.19547813071162434 -0.9658909732597374
51.47094188376753 -0.2224866545869631 -0.9464020408794991 -0.20877286784118249 0.0214055953770656 -0.20877286784114735 0.02140559537713973 0.18245854288654395 -0.9678414747484971
51.609218436873746 -0.23386273168006982 -0.9428160940800079 -0.21200376896635026 0.02437700237191121 -0.21200376896633627 0.02437700237197034 0.16921525298300033 -0.9696160276912316
51.74749498997996 -0.24527719438118373 -0.9390249346557239 -0.215320705355275 0.027477728333470734 -0.21532070535528347 0.027477728333515822 0.15574500324846585 -0.9712049060682263
51.88577154308617 -0.2567271156737969 -0.9350231513520304 -0.2187235380161568 0.030715091592190054 -0.21872353801618918 0.030715091592221515 0.14204467075672644 -0.9725978666947375
52.02404809619238 -0.2682093089516897 -0.9308051875098555 -0.22221188660726696 0.03409673319167278 -0.22221188660732488 0.03409673319169165 0.1281112940455701 -0.9737841257279982
52.1623246492986 -0.27972030848081675 -0.9263653424608592 -0.22578510346447356 0.0376306253415468 -0.22578510346455855 0.03763062534155419 0.11394210260484905 -0.9747523348310703
52.30060120240481 -0.29125634861348637 -0.9216977739167802 -0.22944224549655692 0.041325079206129905 -0.22944224549667044 0.0413250792061271 0.09953454945626283 -0.9754905571230086
52.438877755511015 -0.3028133417120243 -0.9167965015007633 -0.23318204381867474 0.04518875185712248 -0.23318204381881805 0.04518875185711112 0.0848863470795419 -0.9759862430719188
52.57715430861723 -0.31438685474487105 -0.911655411584673 -0.23700287099393985 0.04923065219457928 -0.23700287099411457 0.04923065219456072 0.06999550695242074 -0.9762262065182795
52.71543086172345 -0.325972084525702 -0.9062682636137341 -0.2409027057544539 0.053460145613972984 -0.2409027057546611 0.05346014561394921 0.054860382983442424 -0.9761966010508341
52.75 -0.32886962249378127 -0.9048822872793391 -0.24188973197222977 0.05454796211203383 -0.24188973197244554 0.054547962112008797 0.051038276153100526 -0.9761453921784036
52.853707414829664 -0.3375638315758514 -0.9006286981184342 -0.2448790950766929 0.057886957168138034 -0.24487909507693423 0.057886957168110875 0.03947971912677817 -0.9758828969967608
52.991983967935866 -0.3491564726025532 -0.8947302466333081 -0.2489291134923665 0.06252117294113 -0.24892911349264268 0.06252117294110142 0.02385270147635965 -0.9752698593320605
53.13026052104208 -0.3607439316004949 -0.8885663437630308 -0.2530493195252904 0.06737323931653584 -0.2530493195256027 0.06737323931650824 0.007979015141957424 -0.9743415268676195
53.2685370741483 -0.3723196496025605 -0.8821303416579072 -0.25723570915808713 0.0724539597854562 -0.2572357091584362 0.0724539597854319 -0.008141093788347487 -0.9730811931214309
53.406813627254515 -0.383876553127675 -0.875415527183276 -0.2614836662503215 0.07777448889931439 -0.26148366625070807 0.07777448889929636 -0.02450675089753762 -0.9714713893484566
53.54509018036072 -0.39540702139998046 -0.8684151420901978 -0.2657879098528216 0.08334632292994086 -0.26578790985324613 0.08334632292993172 -0.0411163804073118 -0.9694938702666864
53.68336673346693 -0.4069028524447221 -0.8611224065177153 -0.27014243839227925 0.089181286754238 -0.27014243839274193 0.08918128675424065 -0.057967626185539856 -0.9671296030913961
53.82164328657315 -0.4183552282026434 -0.8535305461795369 -0.27454047073676197 0.09529151643352171 -0.27454047073726273 0.09529151643353989 -0.07505726653829226 -0.964358760569388
53.959919839679365 -0.4297546788471801 -0.8456328236094909 -0.2789743841975486 0.10168943690884318 -0.27897438419808684 0.10168943690888 -0.09238112256445064 -0.9611607187910538
54.098196392785574 -0.44109104653768516 -0.8374225738599201 -0.28343564957684564 0.10838773418389923 -0.2834356495774212 0.1083877341839578 -0.10993395989575983 -0.9575140606501056
54.236472945891784 -0.45235344889803397 -0.8288932450643258 -0.28791476343567546 0.11539932131746213 -0.28791476343628647 0.11539932131754647 -0.12770938370378193 -0.9533965859182176
54.374749498998 -0.46353024257380326 -0.8200384442889093 -0.29240117783276487 0.12273729749879292 -0.29240117783341024 0.12273729749890633 -0.14569972692982902 -0.9487853290037018
54.513026052104216 -0.47460898729312256 -0.8108519891060151 -0.2968832278748924 0.13041489943364923 -0.2968832278755701 0.13041489943379556 -0.16389593178675 -0.9436565855684832
54.651302605210425 -0.4855764109369144 -0.8013279653240806 -0.30134805752308014 0.13844544422724359 -0.301348057523788 0.13844544422742616 -0.18228742469536585 -0.9379859492841789
54.789579158316634 -0.4964183762134736 -0.7914607913020002 -0.3057815442184021 0.1468422629158853 -0.30578154421913706 0.14684226291610808 -0.20086198495552 -0.931748360113886
54.92785571142285 -0.5071198496305034 -0.7812452892584898 -0.3101682230270392 0.15561862377393257 -0.3101682230277979 0.15561862377419916 -0.21960560761533987 -0.9249181656081439
55.06613226452906 -0.5176648735643121 -0.7706767639569773 -0.31449121115727796 0.16478764451006273 -0.31449121115805684 0.16478764451037584 -0.23850236119455342 -0.9174691967980078
55.204408817635276 -0.528036542340471 -0.7597510891009533 -0.3187321338718777 0.17436219247059118 -0.31873213387267174 0.1743621924709545 -0.2575342411413744 -0.9093748603504097
55.342685370741485 -0.5382169833615542 -0.7484648017108875 -0.322871053007519 0.18435477199168182 -0.32287105300832347 0.1843547719920976 -0.2766810201593479 -0.9006082487157091
55.480961923847694 -0.5481873444441302 -0.736815204668538 -0.3268863995182759 0.19477739809165773 -0.32688639951908516 0.1947773980921287 -0.29592009683242954 -0.8911422700378632
55.61923847695391 -0.557927788656546 -0.72480047750471 -0.33075491168064935 0.20564145577441642 -0.33075491168145676 0.20564145577494392 -0.31522634430400104 -0.880949799606475
55.75751503006013 -0.5674174980782 -0.7124197953687801 -0.33445158083128534 0.2169575443309022 -0.33445158083208437 0.21695754433148795 -0.3345719611284114 -0.8700038545983437
55.895791583166336 -0.5766346880257763 -0.6996734559496126 -0.33794960675128805 0.2287353061836725 -0.33794960675207164 0.22873530618431676 -0.35392632681002534 -0.8582777937743846
56.034068136272545 -0.5855566334074764 -0.6865630139147016 -0.3412203650579765 0.2409832400260029 -0.34122036505873715 0.24098324002670565 -0.3732558649713276 -0.8457455436551413
56.17234468937876 -0.5941597089661644 -0.6730914221951854 -0.34423338920917473 0.2537084982677905 -0.3442333892099042 0.25370849826855074 -0.39252391754251037 -0.8323818524832252
56.31062124248498 -0.6024194452495096 -0.6592631791668389 -0.34695636995810375 0.26691666912146406 -0.3469563699587937 0.2669166691222792 -0.411690633831929 -0.8181625729818898
56.44889779559118 -0.6103106021907239 -0.6450844804607494 -0.3493551753078844 0.28061154404704686 -0.34935517530852667 0.2806115440479139 -0.4307128788082461 -0.8030649745238017
56.587174348697395 -0.617807262187925 -0.630563373782716 -0.35139389419079936 0.2947948717301364 -0.3513938941913848 0.29479487173105096 -0.4495441653862284 -0.7870680848214713
56.72545090180361 -0.6248829445224294 -0.6157099147301812 -0.3530349072237279 0.30946610029148597 -0.35303490722424846 0.30946610029244237 -0.46813461594006256 -0.7701530606308983
56.86372745490983 -0.6315107428450142 -0.6005363211744742 -0.35423898795050246 0.3246221100214234 -0.35423898795094977 0.3246221100224146 -0.4864309586480982 -0.7523035862149269
57.00200400801603 -0.6376634872721786 -0.5850571233321223 -0.3549654379553563 0.3402569395922023 -0.35496543795572255 0.34025693959322023 -0.5043765645740013 -0.7335062974385356
57.140280561122246 -0.6433139323598178 -0.5692893061926856 -0.35517225909895767 0.35636150941850087 -0.3551722590992359 0.35636150941953554 -0.5219115315807659 -0.7137512283649805
57.27855711422846 -0.6484349718483164 -0.5532524405165451 -0.35481636586874504 0.3729233465973453 -0.3548163658689291 0.37292334659838555 -0.5389728212216159 -0.6930322760961332
57.41683366733468 -0.6529998805913944 -0.5369687981824838 -0.3538538404279018 0.3899263166452523 -0.3538538404279865 0.3899263166462855 -0.5554944546190905 -0.6713476783663312
57.55511022044088 -0.6569825834842953 -0.5204634472740035 -0.35224023237336116 0.4073503680372412 -0.3522402323733431 0.40735036803825375 -0.5714077729928483 -0.6487004970798419
57.6933867735471 -0.6603579504922936 -0.5037643219710215 -0.3499309044569995 0.42517129630831807 -0.3499309044568766 0.42517129630929507 -0.586641767891324 -0.6250990996107517
57.83166332665331 -0.6631021160503643 -0.48690226208900306 -0.34688142457496585 0.44336053516518625 -0.34688142457473803 0.4433605351661122 -0.6011234852890388 -0.6005576283051293
57.96993987975953 -0.6651928201682029 -0.469911017012279 -0.34304800318435535 0.4618849826304789 -0.3430480031840246 0.461884982631337 -0.6147785065031146 -0.5750964472945813
58.10821643286573 -0.6666097675482648 -0.4528272088347731 -0.33838797396981835 0.4807068706549855 -0.3383879739693897 0.48070687065575946 -0.6275315073421348 -0.5487425545148348
58.24649298597195 -0.6673349999338425 -0.4356902497814341 -0.3328603140722417 0.49978368683339214 -0.33286031407172134 0.4997836868340645 -0.6393068950242063 -0.5215299457997364
58.384769539078164 -0.6673532757843799 -0.4185422094658874 -0.3264261985375147 0.5190681567934707 -0.3264261985369129 0.5190681567940257 -0.6500295202022361 -0.49349991717438857
58.52304609218438 -0.6666524502709654 -0.40142762826725537 -0.3190495818903457 0.5385082954476503 -0.31904958188967436 0.5385082954480721 -0.6596254589469812 -0.46470129108940006
58.66132264529058 -0.6652238475498039 -0.3843932740958525 -0.31069779794586516 0.5580475345560714 -0.3106977979451393 0.5580475345563456 -0.668022856819585 -0.4351905524086299
58.7995991983968 -0.6630626163664926 -0.36748784106612375 -0.30134216721483553 0.5776249329192564 -0.3013421672140726 0.5776249329193702 -0.6751528242971776 -0.40503188056537437
58.937875751503014 -0.6601680593348004 -0.3507615900934893 -0.2909585996239157 0.5971754739794934 -0.2909585996231355 0.5971754739794367 -0.6809503699047456 -0.3742970655024873
59.076152304609224 -0.6565439257876508 -0.3342659331507973 -0.2795281788576483 0.6166304536662053 -0.2795281788568731 0.6166304536659701 -0.6853553545836285 -0.3430652968543992
59.21442885771543 -0.6521986579788461 -0.3180529648122767 -0.26703771353559813 0.6359179589989604 -0.26703771353485106 0.6359179589985426 -0.6883134482399897 -0.31142281832807184
59.35270541082165 -0.6471455806773478 -0.3021749467123734 -0.25348023976716727 0.6549634353162939 -0.25348023976647327 0.6549634353156915 -0.6897770672252845 -0.2794624423740614
59.490981963927865 -0.6414030248828446 -0.2866837525701755 -0.23885545947033365 0.6736903371106698 -0.23885545946971798 0.6736903371098865 -0.6897062698671872 -0.24728292394544588
59.629258517034074 -0.6349943775239902 -0.27163028338007494 -0.22317009927461073 0.6920208544282163 -0.2231700992740988 0.6920208544272576 -0.68806958624689 -0.21498819631505567
59.76753507014028 -0.6279480505764652 -0.2570638641391615 -0.20643817590410407 0.7098767037678397 -0.2064381759037207 0.7098767037667165 -0.6848447583386517 -0.1826864764110544
59.9058116232465 -0.6202973650269092 -0.243031634962308 -0.18868115567257127 0.7271799695372744 -0.18868115567234012 0.7271799695360011 -0.6800193674875542 -0.15048925174948735
60.04408817635271 -0.6120803474514684 -0.22957795052308172 -0.1699279981004137 0.7438539795509952 -0.16992799810035564 0.7438539795495894 -0.673591328052861 -0.1185101655729307
60.182364729458925 -0.6033394395863501 -0.21674380236177632 -0.15021507662337175 0.7598241959433967 -0.15021507662350564 0.7598241959418809 -0.6655692288832037 -0.0868638210112253
60.320641282565134 -0.5941211240301915 -0.20456627865287474 -0.12958597280359008 0.7750191013626772 -0.1295859728039312 0.7750191013610753 -0.6559725080509986 -0.05566452872745953
60.45891783567134 -0.5844754720028944 -0.19307807548359307 -0.10809114423614563 0.7893710595247176 -0.10809114423670524 0.7893710595230565 -0.6448314508296191 -0.02502502537772977
60.59719438877756 -0.5744556217518959 -0.18230707255838613 -0.08578747029844547 0.8028171292234633 -0.08578747029923062 0.8028171292217718 -0.6321870060632255 0.004944807890813974
60.735470941883776 -0.564117198603004 -0.17227598454368998 -0.06273768382498957 0.8152998117525223 -0.06273768382600331 0.8152998117508299 -0.6180904216225727 0.03413919689212086
60.873747494989985 -0.5535176896684335 -0.16300209707211183 -0.03900970050797886 0.8267677133789085 -0.0390097005092192 0.8267677133772449 -0.6026027052948085 0.0624576661898989
61.012024048096194 -0.542715787739212 -0.15449709383754362 -0.014675861132884771 0.837176106960505 -0.01467586113434527 0.8371761069588983 -0.5857939229398976 0.08980614319853286
61.15030060120241 -0.5317707198226393 -0.14676697836024483 0.010187895513093459 0.8464873799015866 0.010187895511423684 0.8464873799000652 -0.567742350785504 0.11609794928578676
61.288577154308626 -0.52074157609296 -0.1398120910280249 0.035502909210447076 0.8546713592431433 0.03550290920858318 0.8546713592417321 -0.5485335030756817 0.1412546562701295
61.42685370741483 -0.5096866546994647 -0.13362721907657005 0.0611887033042664 0.8617055086038368 0.061188703302226366 0.8617055086025585 -0.5282590597307231 0.16520679120335408
61.565130260521045 -0.498662836953403 -0.1282017944032377 0.0871638967308847 0.8675749957247371 0.0871638967286899 0.8675749957236107 -0.5070157210676485 0.1878943773839104
61.70340681362726 -0.4877250059612688 -0.12352017164338636 0.11334710217321908 0.8722726333257251 0.11334710217089333 0.8722726333247659 -0.48490401789244175 0.20926730489355605
61.84168336673348 -0.47692551988291415 -0.11956197688106046 0.1396577907264293 0.875798699666237 0.13965779072399775 0.8757986996654572 -0.4620271053948801 0.22928552932034452
61.97995991983968 -0.46631374878467885 -0.11630251579116568 0.16601710542162518 0.8781606484552431 0.16601710541911419 0.8781606484546494 -0.4384895683113252 0.24791910246757232
62.118236472945895 -0.4559356816560119 -0.11371322895914049 0.19234860847040752 0.8793727204480217 0.19234860846784319 0.8793727204476178 -0.4143962628845551 0.2651480435254559
62.25651302605211 -0.44583360768998903 -0.11176218160462881 0.21857894999975097 0.879455471114414 0.21857894999715927 0.8794554711141997 -0.3898512184043234 0.2809620632166061
62.39478957915833 -0.43604587351204643 -0.11041457492485568 0.2446384491800055 0.8784352301226754 0.2446384491774114 0.8784352301226468 -0.3649566177498903 0.2953601566872674
62.53306613226453 -0.42660671578135057 -0.10963326672303036 0.2704615818451367 0.8763435090547855 0.27046158184256275 0.8763435090549343 -0.33981187258484874 0.30835008332743596
62.671342685370746 -0.41754616656870847 -0.10937928982892697 0.2959873718149225 0.8732163737909262 0.2959873718123903 0.8732163737912428 -0.31451280488275685 0.31994775324311897
62.80961923847696 -0.4088900271950353 -0.10961235797223595 0.3211596860251719 0.8690937974414188 0.3211596860227001 0.8690937974418902 -0.2891509424848598 0.3301765408000462
62.94789579158318 -0.4006599048320767 -0.11029135014764341 0.3459274361537329 0.8640190086547678 0.34592743615133775 0.8640190086553796 -0.26381293257908045 0.33906654557854354
63.08617234468939 -0.39287330513751884 -0.11137476602770657 0.37024469162506635 0.8580378486955228 0.3702446916227612 0.8580378486962594 -0.2385800734832479 0.34665382032275244
63.2244488977956 -0.3855437735147078 -0.11282114655463799 0.394070710643292 0.8511981489753997 0.3940707106410877 0.8511981489762441 -0.21352796201980462 0.35297958415373737
63.36272545090181 -0.3786810772317601 -0.11458945540367471 0.41736989722829093 0.843549138843465 0.4173698972261957 0.8435491388444005 -0.18872625115380826 0.3580894375745229
63.50100200400803 -0.37229142057233844 -0.11663941849928255 0.4401116931217693 0.835140891495759 0.44011169311978804 0.835140891496768 -0.16423851046613258 0.3620325937564713
63.63927855711424 -0.36637768537875126 -0.11893182013463421 0.4622704139192685 0.8260238139384539 0.4622704139174046 0.82602381393952 -0.14012218045458108 0.36486113838426043
63.77755511022044 -0.36093968974124185 -0.12142875546159337 0.48382503891310824 0.8162481851033381 0.48382503891136264 0.8162481851044447 -0.11642861057758053 0.36662932806247434
63.915831663326664 -0.3559744581375657 -0.12409384016233238 0.5047589639532645 0.8058637445249737 0.504758963951636 0.8058637445261063 -0.0932031703382718 0.36739293504562204
64.05410821643287 -0.3514764969885751 -0.12689237897563843 0.5250597262050004 0.7949193324842802 0.5250597262034862 0.7949193324854242 -0.0704854224986628 0.3672086439220555
64.19238476953909 -0.34743807032606355 -0.12979149543115825 0.5447187090620698 0.7834625812267323 0.544718709060666 0.7834625812278754 -0.04830934765218853 0.3661335039188787
64.3306613226453 -0.34384947103140673 -0.13276022565126933 0.5637308347174379 0.7715396557851665 0.5637308347161395 0.7715396557862975 -0.026703609804284933 0.36422443873965027
64.46893787575151 -0.3406992838660669 -0.13576957942651707 0.5820942510509018 0.7591950420758327 0.5820942510497025 0.7591950420769412 -0.005691853249534806 0.3615378143231732
64.60721442885772 -0.3379746372525155 -0.13879257197395867 0.599810018608521 0.7464713792821591 0.5998100186074147 0.7464713792832371 0.01470697816967298 0.3581290636296264
64.74549098196394 -0.33566144145712956 -0.1418042298679168 0.6168818025600677 0.7334093330770057 0.6168818025590476 0.7334093330780453 0.034478307439751776 0.3540523665176906
64.88376753507015 -0.33374461146155193 -0.14478157460986124 0.6333155736570666 0.7200475059405869 0.6333155736561252 0.7200475059415828 0.05361158345194894 0.34936038196224145
65.02204408817636 -0.3322082733769618 -0.14770358719864407 0.6491193213986657 0.7064223806844614 0.6491193213977966 0.7064223806854089 0.07209993887575866 0.3441040292590483
65.16032064128257 -0.3310359537522679 -0.15055115689297 0.6643027818611946 0.692568293268415 0.6643027818603909 0.6925682932693107 0.08993985197995807 0.33833231444897505
65.29859719438879 -0.330210751551468 -0.15330701714226508 0.6788771819706 0.6785174310731901 0.6788771819698554 0.678517431074031 0.10713081664761925 0.3320921979451644
65.43687374749499 -0.32971549292903035 -0.15595567141525668 0.692855001400011 0.6642998529460624 0.6928550013993197 0.664299852946847 0.12367502398915264 0.32542849923768313
65.57515030060121 -0.32953286921901714 -0.15848331139077343 0.7062497527593115 0.6499435275479718 0.706249752758668 0.6499435275486994 0.13957705818919464 0.3183838345564633
65.71342685370742 -0.3296455587790862 -0.16087772970345487 0.7190757803077068 0.6354743867829202 0.7190757803071064 0.6354743867835901 0.15484360853552726 0.3109985834719368
65.85170340681364 -0.33003633350055017 -0.16312822916699177 0.731348077060147 0.6209163913672093 0.7313480770595855 0.6209163913678217 0.1694831989742873 0.3033108805821887
65.98997995991984 -0.3306881509170618 -0.16522553013605767 0.7430821198681571 0.6062916058855409 0.7430821198676306 0.6062916058860965 0.1835059360144336 0.295356628656916
66.12825651302606 -0.3315842329238338 -0.16716167742030097 0.754293721828778 0.591620280972428 0.7542937218282837 0.5916202809729276 0.19692327536313453 0.2871695298653968
66.26653306613227 -0.33270813216313616 -0.16892994793315635 0.7649989012045073 0.5769209405431511 0.764998901204043 0.5769209405435953 0.2097478073069919 0.2787811319943242
66.40480961923849 -0.33404378714639416 -0.1705247600470577 0.775213765915274 0.5622104722722385 0.7752137659148374 0.5622104722726289 0.22199306055608395 0.2702208868500766
66.54308617234469 -0.33557556717401227 -0.1719415854360088 0.7849544125832101 0.5475042197752253 0.7849544125828004 0.5475042197755623 0.23367332403152108 0.26151621832977917
66.68136272545091 -0.33728830808636 -0.17317686401677546 0.794236839065863 0.532816075187998 0.7942368390654796 0.5328160751882827 0.2448034858957489 0.2526925979289819
66.81963927855712 -0.3391673398374684 -0.17422792245074736 0.8030768693969437 0.5181585710560556 0.8030768693965862 0.518158571056289 0.25539888899089214 0.24377362572574574
66.95791583166334 -0.34119850683094655 -0.17509289653904314 0.8114900900604539 0.5035429706424642 0.8114900900601227 0.5035429706426467 0.2654752017573695 0.2347811151373569
67.09619238476954 -0.34336818189850205 -0.17577065773242984 0.8194917965487557 0.48897935593855957 0.8194917965484513 0.48897935593869174 0.2750483036462677 0.22573517998444548
67.23446893787576 -0.3456632747382061 -0.17626074388372392 0.8270969491938047 0.47447671281579346 0.827096949193528 0.4744767128158751 0.28413418400882906 0.2166543226162408
67.37274549098197 -0.3480712355642819 -0.17656329429201134 0.8343201373094142 0.4600430128918753 0.8343201373091667 0.46004301289190647 0.2927488534394316 0.20755552204961653
67.5110220440882 -0.35058005465465236 -0.17667898902363893 0.8411755507380764 0.44568529180051764 0.8411755507378597 0.44568529180049743 0.3009082665601107 0.19845432125328877
67.64929859719439 -0.35317825841808037 -0.17660899244294723 0.8476769579558181 0.4314097236534391 0.8476769579556334 0.4314097236533666 0.30862825526065063 0.18936491286775292
67.78757515030061 -0.3558549025404857 -0.17635490084460662 0.8538376899508202 0.4172216915670196 0.8538376899506696 0.4172216915668937 0.3159244714453301 0.18030022279192548
67.92585170340682 -0.35859956271078447 -0.17591869404772745 0.8596706291542995 0.40312585419597957 0.859670629154185 0.4031258541957987 0.3228123383822637 0.17127199119034076
68.06412825651303 -0.36140232337078204 -0.17530269078831637 0.8651882027641479 0.38912620827405686 0.8651882027640712 0.3891262082738187 0.3293070098016624 0.16229085058126658
68.20240480961924 -0.3642537648816648 -0.1745095077299282 0.8704023798620777 0.3752261472083951 0.8704023798620409 0.37522614720809744 0.3354233359430069 0.1533664007577178
68.34068136272546 -0.3671449494516069 -0.1735420219013863 0.8753246717827202 0.36142851581164703 0.8753246717827257 0.3614285158112874 0.3411758358065369 0.14450728037139893
68.47895791583167 -0.37006740612500627 -0.17240333636426813 0.8799661352478297 0.3477356612848669 0.8799661352478794 0.34773566128444167 0.3465786749201825 0.13572123507552364
68.61723446893788 -0.373013115093802 -0.17109674891058732 0.8843373778300567 0.3341494805863408 0.884337377830152 0.3341494805858469 0.3516456479880817 0.12701518217752933
68.75551102204409 -0.37597449155513724 -0.16962572359197087 0.8884485653585121 0.3206714643376028 0.8884485653586554 0.32067146433703675 0.35639016584036265 0.11839527179824039
68.8937875751503 -0.37894436930710185 -0.16799386488505164 0.8923094309224724 0.30730273742898084 0.8923094309226647 0.3073027374283381 0.36082524615528466 0.10986694457117596
69.03206412825652 -0.38191598424518913 -0.1662048943030996 0.895929285170064 0.29404409649391017 0.8959292851703071 0.2940440964931868 0.36496350747373324 0.10143498594555822
69.17034068136273 -0.384882957896299 -0.16426262927073743 0.899317027635738 0.28089604442474086 0.8993170276360329 0.2808960444239318 0.3688171660721885 0.0931035771801304
69.30861723446894 -0.38783928110423943 -0.16217096408643672 0.9024811588638767 0.2678588221033931 0.9024811588642252 0.26785882210249434 0.37239803530341786 0.0848763431330587
69.44689378757515 -0.3907792979605794 -0.15993385280610514 0.905429793126203 0.2549324375186474 0.9054297931266051 0.25493243751765315 0.37571752705428557 0.07675639696674025
69.58517034068137 -0.3936976900571111 -0.15755529389011036 0.9081706715578911 0.24211669243846123 0.9081706715583485 0.24211669243736636 0.3787866550071387 0.06874638189601284
69.72344689378758 -0.3965894611208044 -0.1550393164654054 0.9107111755617173 0.22941120680096427 0.9107111755622294 0.22941120679976346 0.3816160394253593 0.060848510114661636
69.86172344689378 -0.3994499220788926 -0.15238996806374291 0.9130583403513329 0.21681544098199118 0.9130583403519006 0.21681544098067865 0.3842159132148852 0.053064599038824656
70.0 -0.4022746765902052 -0.14961130370623515 0.915218868524107 0.20432871609047093 0.9152188685247299 0.20432871608904032 0.38659612904198254 0.04539610500736724
