# GHz S RI R 50.0 
! Port[1] = 1
! Port[2] = 2
!freq ReS11 ImS11 ReS21 ImS21 ReS12 ImS12 ReS22 ImS22
1.0 0.016263181393909427 0.045762320921201166 0.9837362320888342 -0.05756729813538238 0.9837362320888342 -0.05756729813538238 0.0161248405789411 0.04581962199804448
1.1725 0.017778643914307807 0.05313187654098846 0.9822179235018076 -0.06696530015351963 0.9822179235018077 -0.0669653001535179 0.017592582264890348 0.05317587169428007
1.345 0.01939234565641164 0.060376612393520504 0.9806040236387351 -0.07624016809249967 0.9806040236387353 -0.0762401680924966 0.019142604407655747 0.06041172051398092
1.5175 0.021093439836601946 0.06751806594342562 0.9789044884107551 -0.08541430750112097 0.9789044884107565 -0.08541430750111677 0.020766698327037415 0.06755088137923773
1.69 0.02287830519305094 0.07457425214160653 0.9771220626567882 -0.09450614392744752 0.9771220626567907 -0.09450614392744225 0.022463744748370203 0.07461224390629177
1.8625 0.024747702846691314 0.08155899664716414 0.9752552511849777 -0.10352961272692777 0.9752552511849814 -0.10352961272692214 0.024236538453177067 0.08160968526336587
2.035 0.026704700562652017 0.08848218128366948 0.9733004274473903 -0.11249453905265623 0.973300427447395 -0.11249453905265025 0.026089648724005966 0.08855270646120293
2.2075 0.028753312034667116 0.0953503667315454 0.9712531790759544 -0.12140735431596766 0.9712531790759592 -0.12140735431596136 0.028028122529261592 0.09544731748195795
2.38 0.030897679873556565 0.10216749192001734 0.9691090922688314 -0.13027185235594285 0.9691090922688382 -0.13027185235593688 0.03005677206329266 0.10229688972914867
2.5525 0.03314162812889346 0.10893551036936584 0.9668641651522754 -0.13908985589727235 0.9668641651522832 -0.1390898558972666 0.03217982969389406 0.10910286969033511
2.725 0.03548844747386444 0.11565491524982346 0.9645149935366116 -0.14786175486259068 0.9645149935366195 -0.14786175486258532 0.034400817410240876 0.11586533503856428
2.8975 0.0379408179303347 0.12232514973026447 0.9620588258142898 -0.15658692032274615 0.9620588258142998 -0.1565869203227414 0.036722532879772694 0.12258341048530386
3.07 0.040500807777782685 0.12894491739827862 0.9594935478371562 -0.16526401353291945 0.9594935478371661 -0.16526401353291512 0.039147093359539996 0.12925557114034994
3.2425 0.04316991113220229 0.13551241238485176 0.956817634074319 -0.1738912124585502 0.9568176340743286 -0.1738912124585468 0.04167600400190689 0.13587986047337064
3.415 0.04594910228572651 0.14202548781714103 0.9540300857060143 -0.18246637594242623 0.9540300857060252 -0.18246637594242313 0.04431023249762916 0.14245404547025167
3.5875 0.048838894615388206 0.14848177816312896 0.9511303667881869 -0.190987161851693 0.9511303667881973 -0.19098716185169165 0.047050280980275375 0.1489757264646386
3.76 0.05183939769733409 0.1548787876678555 0.9481183440404782 -0.19945111175008293 0.9481183440404888 -0.1994511117500817 0.04989625115570831 0.15544241462488706
3.9325 0.05495036964173996 0.161213954101296 0.9449942326520784 -0.20785571142987264 0.9449942326520898 -0.20785571142987172 0.05284790133215562 0.16185158650678483
4.105 0.05817126355177038 0.16748469463491344 0.9417585487863458 -0.21619843411926934 0.9417585487863572 -0.21619843411926853 0.05590469540414157 0.1682007223982644
4.2775 0.06150126801457626 0.1736884388202222 0.9384120685898348 -0.22447677128546778 0.938412068589846 -0.2244767712854687 0.05906584447851782 0.174487333224171
4.45 0.06493934202655861 0.17982265226851854 0.9349557931095388 -0.2326882545616791 0.9349557931095499 -0.23268825456168013 0.06233034206605572 0.18070897937595887
4.6225 0.06848424496281022 0.1858848536244956 0.9313909183786874 -0.24083047131908364 0.9313909183786984 -0.24083047131908475 0.06569699379205737 0.18686328383585873
4.795 0.07213456225354982 0.19187262669709637 0.9277188099226162 -0.2489010756820043 0.9277188099226275 -0.24890107568200553 0.06916444251231936 0.19294794126321158
4.9675 0.07588872740449681 0.1977836290856309 0.9239409809918713 -0.2568977962685468 0.9239409809918819 -0.25689779626854975 0.07273118961468371 0.1989607242170756
5.14 0.07974504093642781 0.20361559826210293 0.9200590739113736 -0.2648184415714503 0.9200590739113856 -0.264818441571452 0.07639561317160096 0.20489948734237495
5.3125 0.08370168674506226 0.2093663558003594 0.9160748440218976 -0.27266090363225576 0.9160748440219086 -0.27266090363225737 0.08015598350016762 0.21076217010308615
5.485 0.08775674630820304 0.2150338102489664 0.9119901457730146 -0.2804231604756733 0.9119901457730252 -0.2804231604756765 0.08401047658922965 0.2165467984744484
5.6575 0.09190821109857612 0.22061595900575276 0.9078069206009375 -0.2881032776381995 0.907806920600948 -0.2881032776382028 0.08795718577007201 0.22225148588527263
5.83 0.09615399350044691 0.22611088945224375 0.903527186288694 -0.29569940903036085 0.9035271862887039 -0.2956994090303658 0.09199413193764334 0.22787443361616116
6.0025 0.10049193647632457 0.2315167795345077 0.8991530275602077 -0.3032097973042351 0.8991530275602181 -0.30320979730423864 0.09611927257176944 0.2334139307991478
6.175 0.10491982218645003 0.23683189792532428 0.8946865877049355 -0.31063277384944715 0.8946865877049445 -0.310632773849452 0.10033050976075142 0.2388683541216292
6.3475 0.10943537972742687 0.24205460386543473 0.8901300610668865 -0.3179667585061997 0.8901300610668957 -0.3179667585062065 0.10462569739148164 0.2442361673072949
6.52 0.11403629212636644 0.24718334675482118 0.8854856862624014 -0.32521025905900236 0.8854856862624103 -0.3252102590590073 0.10900264763915518 0.24951592042540038
6.6925 0.11872020270222187 0.25221666554562383 0.8807557400159494 -0.3323618705569599 0.8807557400159585 -0.3323618705569669 0.11345913686457508 0.2547062490646408
6.865 0.12348472088578873 0.25715318797440756 0.8759425315235603 -0.33942027449381024 0.875942531523569 -0.33942027449381534 0.1179929110067537 0.25980587339726224
7.0375 0.12832742757333285 0.2619916296614212 0.8710483972700079 -0.3463842378716921 0.8710483972700152 -0.3463842378716986 0.12260169054213665 0.2648135971515787
7.21 0.13324588007529517 0.26673079309730807 0.8660756962393265 -0.35325261216626946 0.8660756962393344 -0.35325261216627624 0.12728317506853157 0.2697283065058349
7.3825 0.13823761671055995 0.27136956653257827 0.8610268054691773 -0.36002433220614266 0.861026805469185 -0.3600243322061477 0.1320350475611569 0.27454896891279945
7.555 0.14330016108775478 0.275906922781447 0.855904115908437 -0.36669841497632627 0.855904115908444 -0.36669841497633276 0.13685497833953078 0.2792746318619689
7.7275 0.1484310261077852 0.2803419179490709 0.8507100285446401 -0.37327395835330085 0.8507100285446454 -0.3732739583533085 0.14174062877697147 0.28390442158462326
7.9 0.15362771771580158 0.28467369008937393 0.8454469507737767 -0.3797501397775603 0.8454469507737821 -0.379750139777568 0.14668965477878032 0.2884375417059148
8.0725 0.15888773842595927 0.28890145779938503 0.8401172929897054 -0.3861262148685979 0.8401172929897115 -0.3861262148686042 0.15169971005061625 0.29287327184746237
8.245 0.16420859063837628 0.29302451875516355 0.8347234653743588 -0.39240151598652484 0.834723465374364 -0.3924015159865326 0.15676844917482674 0.2972109661835192
8.4175 0.16958777976444125 0.29704224819377867 0.8292678748730454 -0.39857545074410733 0.8292678748730512 -0.39857545074411366 0.16189353050952238 0.30145005195358304
8.59 0.17502281717401877 0.30095409734545336 0.8237529223417732 -0.4046475004727053 0.823752922341779 -0.4046475004727117 0.16707261892271627 0.30559002793420303
8.7625 0.18051122297596223 0.30475959181974405 0.8181809998555408 -0.41061721864549294 0.8181809998555458 -0.41061721864550077 0.17230338837190334 0.30963046287272333
8.935 0.18605052864159308 0.3084583299494482 0.8125544881682822 -0.41648422926122247 0.8125544881682871 -0.41648422926122847 0.17758352433783592 0.31357099388575166
9.1075 0.19163827947941595 0.31204998109590437 0.8068757543165109 -0.4222482251917727 0.8068757543165149 -0.42224822519177835 0.18291072611999906 0.31741132482518836
9.28 0.19727203696819662 0.3155342839192415 0.8011471493597917 -0.4279089664967632 0.8011471493597948 -0.4279089664967703 0.18828270900022748 0.32115122461470685
9.4525 0.20294938095460135 0.318911044617159 0.7953710062520868 -0.43346627870848653 0.7953710062520906 -0.43346627870849214 0.19369720628009585 0.32479052555966675
9.625 0.20866791172087817 0.3221801351357852 0.7895496378387257 -0.438920051090422 0.7895496378387293 -0.4389200510904277 0.199151971197053 0.328329121633477
9.7975 0.21442525192745382 0.32534149135613316 0.783685334974312 -0.44427023487268813 0.783685334974315 -0.4442702348726952 0.20464477872372847 0.33176696674349343
9.97 0.22021904843486498 0.32839511125969617 0.7777803647573375 -0.44951684146767396 0.7777803647573411 -0.4495168414676796 0.21017342725444949 0.33510407297952227
10.1425 0.22604697400905877 0.33134105307665146 0.7718369688776442 -0.454659940669191 0.7718369688776461 -0.45465994066919757 0.21573574018266112 0.3383405088480866
10.315 0.23190672891381778 0.33417943342014295 0.7658573620731212 -0.45969965883841574 0.765857362073123 -0.45969965883842234 0.22132956737269682 0.3414763974955178
10.4875 0.2377960423938254 0.33691042541005056 0.7598437306922888 -0.4646361770798596 0.7598437306922897 -0.46463617707986565 0.2269527865291543 0.34451191492299493
10.66 0.24371267405173688 0.33953425678959537 0.7537982313595238 -0.4694697294105862 0.7537982313595264 -0.4694697294105915 0.23260330446697952 0.3474472881965672
10.8325 0.24965441512244874 0.34205120803805983 0.747722989739882 -0.47420060092580507 0.7477229897398837 -0.4742006009258117 0.23827905828524557 0.3502827936551666
11.005 0.25561908964770347 0.34446161048282764 0.741620099400489 -0.4788291259639359 0.7416200994004908 -0.4788291259639406 0.24397801644754344 0.35301875511953373
11.1775 0.26160455555406653 0.346765844413852 0.7354916207656053 -0.4833556862741042 0.7354916207656068 -0.483355686274109 0.24969817977183345 0.35565554210493516
11.35 0.2676087056372562 0.34896433720354697 0.7293395801624809 -0.48778070918900257 0.7293395801624817 -0.48778070918900857 0.2554375823325602 0.3581935680404157
11.5225 0.2736294684557895 0.35105756143502553 0.7231659689551604 -0.4921046658058905 0.7231659689551604 -0.4921046658058959 0.26119429227781726 0.3606332884972804
11.695 0.2796648091368584 0.3530460330414352 0.7169727427634264 -0.4963280691784316 0.716972742763428 -0.4963280691784364 0.26696641256431447 0.36297519942934714
11.8675 0.2857127300973419 0.3549303094590666 0.7107618207640879 -0.5004514725219408 0.7107618207640886 -0.5004514725219451 0.27275208161289055 0.36521983542744546
12.04 0.29177127168284306 0.35671098779676624 0.704535085071816 -0.5044754674344958 0.7045350850718157 -0.5044754674344996 0.2785494738873183 0.36736776799046905
12.2125 0.29783851272762824 0.3583887030240412 0.6982943801967599 -0.5084006821362278 0.6982943801967605 -0.508400682136232 0.2843568003991049 0.36941960381521055
12.385 0.30391257103833624 0.3599641261801183 0.6920415125761717 -0.5122277797290036 0.6920415125761724 -0.5122277797290078 0.29017230914102793 0.3713759831070465
12.5575 0.30999160380430996 0.36143796260608513 0.6857782501772719 -0.5159574564785435 0.6857782501772717 -0.5159574564785472 0.2959942854521055 0.37323757791343176
12.73 0.31607380793739953 0.36281095020210336 0.6795063221686052 -0.5195904401209249 0.679506322168605 -0.5195904401209285 0.3018210523167013 0.3750050904820245
12.9025 0.32215742034406974 0.36408385771152013 0.6732274186571552 -0.5231274881952441 0.673227418657155 -0.5231274881952477 0.30765097060045116 0.3766792516451245
13.075 0.32824071813261485 0.3652574830335978 0.6669431904884787 -0.5265693864041202 0.6669431904884785 -0.5265693864041237 0.31348243922567853 0.3782608192319941
13.2475 0.33432201875829526 0.36633265156643074 0.6606552491071505 -0.5299169470035536 0.6606552491071502 -0.5299169470035571 0.31931389528895426 0.37975057651047645
13.42 0.34039968010913857 0.36731021458146007 0.6543651664748492 -0.5331710072235294 0.6543651664748482 -0.5331710072235323 0.32514381412342536 0.38114933065922474
13.5925 0.3464721005351828 0.3681910476309038 0.6480744750433924 -0.5363324277206417 0.6480744750433914 -0.5363324277206446 0.3309707093085129 0.3824579112716968
13.765 0.35253771882384194 0.3689760489892506 0.6417846677801177 -0.539402091063867 0.6417846677801173 -0.5394020910638706 0.33679313262954996 0.3836771688929783
13.9375 0.35859501412409495 0.36966613812985083 0.6354971982429845 -0.5423809002544936 0.6354971982429833 -0.5423809002544964 0.34260967398989384 0.3848079735903523
14.11 0.36464250582212565 0.3702622542375205 0.6292134807028429 -0.5452697772810942 0.6292134807028428 -0.5452697772810958 0.34841896127801053 0.38585121355841484
14.2825 0.3706787533710106 0.37076535475793476 0.622934890310349 -0.5480696617103179 0.622934890310347 -0.5480696617103201 0.35421966019198914 0.3868077937594527
14.455 0.37670235607701613 0.371176413984489 0.616662763305029 -0.5507815093141516 0.616662763305027 -0.5507815093141539 0.36001047402388836 0.3876786345996427
14.6275 0.3827119528449828 0.3714964216831666 0.6103983972640874 -0.5534062907341819 0.6103983972640865 -0.5534062907341829 0.36579014340629024 0.38846467064155293
14.8 0.38870622188528076 0.37172638175588235 0.6041430513885407 -0.5559449901833163 0.6041430513885387 -0.5559449901833183 0.3715574460233563 0.3891668493533406
14.9725 0.39468388038469665 0.37186731094261544 0.5978979468243729 -0.5583986041852818 0.5978979468243726 -0.5583986041852835 0.3773111962886523 0.389786129894892
15.145 0.4006436841436033 0.37192023756259845 0.5916642670164292 -0.5607681403521487 0.591664267016429 -0.5607681403521504 0.38305024499194973 0.3903234819411158
15.3175 0.4065844271816986 0.37188620029469616 0.5854431580928217 -0.5630546162000195 0.5854431580928214 -0.5630546162000212 0.38877347891712344 0.3907798845424746
15.49 0.41250494131450566 0.37176624699703714 0.5792357292777067 -0.5652590580029428 0.5792357292777047 -0.565259058002945 0.394479820433247 0.39115632502276354
15.6625 0.41840409570279946 0.3715614335658684 0.5730430533303226 -0.5673824996850376 0.5730430533303216 -0.5673824996850386 0.4001682270609052 0.3914537979140873
15.835 0.4242807963770461 0.3712728228335342 0.5668661670082679 -0.5694259817506981 0.5668661670082669 -0.5694259817506991 0.4058376910156639 0.39167330392887256
16.0075 0.43013398573885514 0.37090148350538893 0.5607060715530425 -0.5713905502527511 0.5607060715530415 -0.5713905502527521 0.4114872387306098 0.3918158489687334
16.18 0.43596264204143087 0.3704484891354044 0.554563733195957 -0.573277255798262 0.554563733195956 -0.573277255798263 0.41711593035977346 0.39188244316989657
16.3525 0.44176577885085894 0.3699149171401421 0.548440083682566 -0.5750871525917394 0.548440083682564 -0.5750871525917413 0.42272285926420644 0.39187409998487116
16.525 0.44754244449008557 0.3693018478507311 0.5423360208138666 -0.5768212975153303 0.5423360208138654 -0.5768212975153313 0.4283071514824017 0.3917918352999558
16.6975 0.4532917214673094 0.3686103636024061 0.5362524090025551 -0.5784807492456032 0.5362524090025531 -0.578480749245605 0.4338679651866902 0.39163666658816604
16.87 0.45901272589046066 0.36784154786113193 0.5301900798427007 -0.5800665674064488 0.530190079842699 -0.5800665674064489 0.4394044901271784 0.39140961209708686
17.0425 0.4647046068693998 0.36699648438677807 0.5241498326912829 -0.581579811757568 0.5241498326912818 -0.5815798117575689 0.4449159470647212 0.3911116900711122
17.215 0.4703665459073367 0.36607625643228114 0.5181324352600751 -0.5830215414180064 0.5181324352600735 -0.5830215414180066 0.4504015871943658 0.39074391800752967
17.3875 0.4759977562829769 0.36508194597817434 0.5121386242164526 -0.5843928141241156 0.5121386242164516 -0.5843928141241164 0.4558606915606311 0.3903073119458253
17.56 0.4815974824247743 0.36401463300184117 0.5061691057917539 -0.5856946855213302 0.5061691057917532 -0.5856946855213294 0.46129257046592864 0.3898028857895903
17.7325 0.4871649992786391 0.36287539478082514 0.5002245563958775 -0.5869282084890854 0.5002245563958764 -0.5869282084890862 0.4666965628733649 0.38923165066036713
17.905 0.49269961167036747 0.36166530522948187 0.49430562323689625 -0.5880944324981999 0.49430562323689514 -0.5880944324982009 0.4720720358051041 0.38859461428274894
18.0775 0.49820065366400484 0.3603854342682545 0.48841292494449146 -0.589194402999993 0.4884129249444908 -0.5891944029999923 0.4774183837374103 0.38789278040002995
18.25 0.5036674879172848 0.3590368472248204 0.4825470521961064 -0.5902291608464222 0.4825470521961047 -0.5902291608464223 0.48273502799341655 0.3871271482196871
18.4225 0.5090995050352242 0.357620604266342 0.47670856834474284 -0.5911997417404883 0.47670856834474123 -0.5911997417404883 0.4880214161346389 0.38629871188794884
18.595 0.5144961229228978 0.3561377598620605 0.47089801004743426 -0.592107175716136 0.47089801004743265 -0.592107175716136 0.49327702135216234 0.38540845999270873
18.7675 0.5198567861383672 0.3545893622754106 0.4651158878934232 -0.5929524866468864 0.46511588789342256 -0.5929524866468856 0.49850134185839545 0.3844573750940206
18.94 0.5251809652466456 0.35297645308488773 0.45936268703118793 -0.5937366917824063 0.45936268703118693 -0.5937366917824072 0.5036939002802142 0.38344643328141537
19.1125 0.5304681561755802 0.3513000667328415 0.4536388677934678 -0.5944608013122464 0.4536388677934672 -0.5944608013122457 0.508854243054291 0.38237660375725746
19.285 0.5357178795744174 0.34956123010139334 0.4479448663195253 -0.5951258179559191 0.4479448663195253 -0.5951258179559191 0.5139819398253366 0.38124884844538354
19.4575 0.5409296801758254 0.34776096211466934 0.44228109517391845 -0.595732736578559 0.44228109517391784 -0.5957327365785582 0.5190765828479184 0.38006412162423325
19.63 0.5461031261620453 0.3459002733665256 0.4366479439610962 -0.5962825438313422 0.4366479439610956 -0.5962825438313414 0.5241377863925147 0.37882336958371243
19.8025 0.5512378085358237 0.3439801657729655 0.4310457799352111 -0.5967762178158825 0.4310457799352105 -0.5967762178158817 0.5291651861563749 0.37752753030500896
19.975 0.556333340496732 0.342001632248438 0.42547494860454643 -0.5972147277718116 0.4254749486045448 -0.5972147277718116 0.5341584386797318 0.37617753316260605
20.1475 0.5613893568234107 0.33996565640521803 0.4199357743300348 -0.5975990337867616 0.41993577433003426 -0.5975990337867608 0.5391172207678762 0.3747742986477213
20.32 0.5664055132622665 0.3378732122750704 0.41442856091736857 -0.5979300865279606 0.41442856091736796 -0.5979300865279599 0.5440412289195472 0.3733187381124301
20.4925 0.5713814859230599 0.3357252640524145 0.4089535922022483 -0.5982088269946858 0.4089535922022483 -0.5982088269946858 0.5489301787620586 0.37181175353372625
20.665 0.5763169706818561 0.33352276585821256 0.40351113262836247 -0.5984361862908009 0.4035111326283619 -0.5984361862908001 0.5537838044935558 0.3702542372967794
20.8375 0.5812116825916739 0.33126666152381445 0.3981014278177074 -0.5986130854166306 0.39810142781770685 -0.5986130854166298 0.5586018583327418 0.36864707199668323
21.01 0.5860653553012356 0.3289578843939921 0.3927247051329272 -0.5987404350794302 0.3927247051329266 -0.5987404350794294 0.5633841099763922 0.36699113025795493
21.1825 0.5908777404820956 0.3265973571484469 0.38738117423134566 -0.5988191355217312 0.38738117423134566 -0.5988191355217312 0.5681303460649386 0.3652872745711162
21.355 0.5956486072644621 0.3241859916410341 0.38207102761043865 -0.5988500763668312 0.3820710276104381 -0.5988500763668303 0.5728403696563844 0.3635363571456504
21.5275 0.6003777416819357 0.3217246887559955 0.37679444114448096 -0.598834136480743 0.3767944411444804 -0.5988341364807421 0.5775139997087563 0.3617392197786629
21.7 0.6050649461254187 0.31921433828050577 0.37155157461217686 -0.5987721838499029 0.3715515746121763 -0.598772183849902 0.5821510705712958 0.3598966937385982
21.8725 0.6097100388063565 0.31665581879284327 0.3663425722150753 -0.5986650754739817 0.3663425722150748 -0.5986650754739808 0.5867514314845682 0.3580095996633569
22.045 0.6143128532295089 0.3140499975654988 0.36116756308661596 -0.5985136572731179 0.36116756308661657 -0.5985136572731163 0.5913149460896098 0.35607874747218976
22.2175 0.6188732376753572 0.3113977304825931 0.3560266617916707 -0.5983187640089532 0.3560266617916702 -0.5983187640089523 0.5958414919462605 0.35410493629075357
22.39 0.6233910546923047 0.3086998619709387 0.3509199688164739 -0.5980812192188373 0.3509199688164734 -0.5980812192188364 0.6003309600607549 0.3520889543887274
22.5625 0.6278661805987237 0.3059572249441407 0.34584757104885056 -0.5978018351625827 0.34584757104885006 -0.5978018351625819 0.6047832544226617 0.3500315791294132
22.735 0.6322985049949599 0.3031706407591126 0.34080954224867993 -0.5974814127811867 0.34080954224867943 -0.5974814127811858 0.6091982915512307 0.3479335769307476
22.9075 0.6366879302853101 0.3003409191844385 0.33580594350854265 -0.5971207416669511 0.33580594350854215 -0.5971207416669503 0.6135760000511696 0.34579570323717457
23.08 0.6410343712100371 0.29746885837998793 0.3308368237045282 -0.596720600044409 0.3308368237045277 -0.5967206000444081 0.6179163201778992 0.34361870250185444
23.2525 0.6453377543874118 0.2945552448872391 0.32590221993718654 -0.596281754761558 0.32590221993718604 -0.5962817547615571 0.622219203412259 0.34140330817866615
23.425 0.6495980178658148 0.291600853629765 0.32100215796263437 -0.5958049612908279 0.3210021579626339 -0.595804961290827 0.6264846120446821 0.3391502427235375
23.5975 0.6538151106858354 0.2886064479233656 0.31613665261383145 -0.5952909637393097 0.316136652613831 -0.5952909637393088 0.6307125187687993 0.33686021760457424
23.77 0.6579889924523844 0.285572779495326 0.3113057082120666 -0.5947404948677222 0.31130570821206616 -0.5947404948677213 0.6349029062844415 0.3345339333205528
23.9425 0.6621196329167386 0.28250058851233334 0.3065093189686943 -0.5941542761176642 0.3065093189686943 -0.5941542761176642 0.6390557669099821 0.3321720794272964
24.115 0.6662070115684898 0.2793906036165541 0.3017474693771878 -0.5935330176466624 0.3017474693771874 -0.5935330176466616 0.6431711022039793 0.3297753345715118
24.2875 0.6702511172373056 0.2762435419694337 0.2970201345955698 -0.5928774183705917 0.29702013459556936 -0.5928774183705908 0.6472489225960198 0.3273443665316513
24.46 0.6742519477044489 0.27306010930276026 0.2923272808193175 -0.5921881660130304 0.2923272808193171 -0.5921881660130295 0.6512892470267093 0.32487983226539063
24.6325 0.6782095093239382 0.2698409999765899 0.28766886564480787 -0.5914659371611249 0.28766886564480854 -0.5914659371611236 0.6552921025967087 0.32238237796333963
24.805 0.6821238166532826 0.26658689704358945 0.2830448384234349 -0.5907113973275842 0.2830448384234345 -0.5907113973275832 0.659257524224713 0.31985263910858547
24.9775 0.6859948920936582 0.2632984723194426 0.27845514060646204 -0.5899252010183976 0.2784551406064627 -0.5899252010183962 0.6631855543142847 0.31729124054172847
25.15 0.689822765539441 0.25997638645889837 0.2738997060807725 -0.5891079918059262 0.27389970608077313 -0.5891079918059249 0.6670762424294224 0.31469879653103205
25.3225 0.6936074740369532 0.2566212890371328 0.26937846149559413 -0.5882604024069952 0.2693784614955937 -0.5882604024069942 0.6709296449787435 0.31207591084736536
25.495 0.6973490614523057 0.2532338186360428 0.2648913265803506 -0.5873830547656564 0.26489132658035014 -0.5873830547656556 0.6747458249081683 0.30942317684361403
25.6675 0.7010475781482155 0.24981460293515945 0.2604382144537608 -0.5864765601402904 0.2604382144537608 -0.5864765601402904 0.6785248514019768 0.3067411775382401
25.84 0.7047030806696502 0.24636425880683588 0.2560190319243284 -0.5855415191947327 0.2560190319243284 -0.5855415191947327 0.6822667995921017 0.3040304857026915
26.0125 0.7083156314381677 0.24288339241541843 0.2516336797823461 -0.5845785220931231 0.2516336797823457 -0.5845785220931221 0.6859717502755289 0.3012916639523876
26.185 0.7118852984548009 0.23937259932009297 0.24728205308357346 -0.5835881485981917 0.24728205308357307 -0.5835881485981907 0.6896397896396721 0.29852526484099307
26.3575 0.7154121550113463 0.23583246458112234 0.24296404142473 -0.5825709681727059 0.24296404142473063 -0.5825709681727046 0.6932710089955638 0.2957318309577211
26.53 0.7188962794099113 0.2322635628692135 0.23867952921094923 -0.5815275400838102 0.23867952921094884 -0.5815275400838094 0.6968655045187471 0.29291189502742865
26.7025 0.7223377546905533 0.22866645857773374 0.23442839591533954 -0.5804584135100124 0.23442839591533918 -0.5804584135100115 0.7004233769976982 0.2900659800132341
26.875 0.7257366683668744 0.22504170593755665 0.230210516330819 -0.5793641276505763 0.2302105163308186 -0.5793641276505753 0.7039447315896447 0.2871945992214683
27.0475 0.7290931121694102 0.22138984913426984 0.22602576081436707 -0.5782452118370798 0.22602576081436668 -0.5782452118370788 0.707429677583642 0.28429825640870143
27.22 0.7324071817966499 0.21771142242754016 0.22187399552384335 -0.5771021856469404 0.22187399552384388 -0.5771021856469392 0.7108783281707368 0.2813774458906716
27.3925 0.7356789766735405 0.21400695027242006 0.21775508264754806 -0.5759355590186805 0.21775508264754873 -0.5759355590186791 0.7142908002210929 0.2784326526528918
27.565 0.7389085997173176 0.21027694744237127 0.2136688806266538 -0.5747458323687411 0.21366888062665343 -0.5747458323687401 0.7176672140679153 0.2754643524627595
27.7375 0.742096157110492 0.20652191915383655 0.20961524437068643 -0.5735334967096657 0.2096152443706871 -0.5735334967096644 0.7210076932980306 0.2724730119829904
27.91 0.745241758080856 0.20274236119214709 0.20559402546620212 -0.5722990337694536 0.20559402546620179 -0.5722990337694527 0.7243123645489644 0.2694590888861945
28.0825 0.7483455146883312 0.1989387600386237 0.20160507237881234 -0.5710429161119394 0.201605072378812 -0.5710429161119385 0.7275813573123963 0.26642303197044803
28.255 0.7514075416185163 0.19511159299865824 0.19764823064871642 -0.5697656072580071 0.19764823064871712 -0.5697656072580057 0.7308148037437983 0.26336528127569436
28.4275 0.7544279559827742 0.19126132833067044 0.19372334307989722 -0.5684675618075209 0.1937233430798969 -0.56846756180752 0.7340128384781603 0.2602862682008372
28.6 0.757406877124694 0.18738842537574088 0.18983024992312023 -0.5671492255617945 0.18983024992311992 -0.5671492255617935 0.7371755984516198 0.2571864156213861
28.7725 0.7603444264327954 0.1834933346878079 0.18596878905290778 -0.5658110356464904 0.18596878905290848 -0.5658110356464892 0.7403032227288684 0.2540661380075162
28.945 0.7632407271593038 0.17957649816429122 0.18213879613861916 -0.5644534206347938 0.18213879613861886 -0.5644534206347928 0.7433958523361914 0.25092584154243525
29.1175 0.7660959042448496 0.17563834917699797 0.1783401048097904 -0.5630768006707696 0.17834010480978982 -0.5630768006707677 0.7464536300999927 0.24776592424092028
29.29 0.7689100841489538 0.17167931270321168 0.17457254681589351 -0.5616815875927548 0.1745725468158932 -0.5616815875927538 0.7494767004906717 0.24458677606793944
29.4625 0.7716833946861346 0.16769980545684446 0.1708359521806375 -0.56026818505671 0.17083595218063818 -0.5602681850567088 0.7524652094717109 0.24138877905722822
29.635 0.7744159648675037 0.16370023601953648 0.1671301493509728 -0.5588369886593977 0.16713014935097353 -0.5588369886593965 0.7554193043538365 0.2381723074297436
29.8075 0.7771079247477037 0.15968100497161797 0.1634549653409321 -0.5573883860613212 0.16345496534093182 -0.5573883860613202 0.7583391336541193 0.2349377277118947
29.98 0.7797594052770364 0.1556425050228343 0.15981022587044083 -0.5559227571093097 0.15981022587044152 -0.5559227571093084 0.7612248469598872 0.23168539885347134
30.1525 0.7823705381586633 0.15158512114273673 0.15619575549925685 -0.5544404739586839 0.15619575549925632 -0.5544404739586819 0.7640765947973037 0.22841567234517532
30.325 0.7849414557107155 0.14750923069067748 0.15261137775613715 -0.5529419011949108 0.15261137775613773 -0.5529419011949096 0.7668945285045121 0.22512889233569872
30.4975 0.7874722907331985 0.14341520354531065 0.14905691526340417 -0.5514273959546876 0.14905691526340392 -0.5514273959546867 0.7696788001091847 0.22182539574826113
30.67 0.789963176379546 0.13930340223353688 0.14553218985700414 -0.5498973080463682 0.14553218985700386 -0.5498973080463673 0.7724295622103848 0.2185055123965526
30.8425 0.792414246032701 0.13517418205883394 0.1420370227022156 -0.5483519800696889 0.14203702270221635 -0.5483519800696877 0.7751469678645926 0.2151695651000153
31.015 0.794825633185588 0.1310278912288897 0.1385712344051191 -0.5467917475347209 0.13857123440511981 -0.5467917475347197 0.7778311704757997 0.21181786979840178
31.1875 0.797197471325859 0.1268648709825018 0.1351346451199408 -0.54521693898 0.13513464511994153 -0.5452169389799988 0.7804823236895331 0.20845073566557612
31.36 0.7995298938247801 0.1226854557156768 0.1317270746524162 -0.5436278760897809 0.13172707465241673 -0.5436278760897787 0.783100581290713 0.20506846522247701
31.5325 0.8018230338301509 0.11848997310688479 0.12834834255926783 -0.5420248738103715 0.1283483425592676 -0.5420248738103706 0.7856860971052159 0.2016713544492356
31.705 0.8040770241631258 0.1142787442414248 0.12499826824392102 -0.5404082404655057 0.12499826824392174 -0.5404082404655045 0.7882390249050434 0.19825969289637063
31.8775 0.8062919972188263 0.110052083734858 0.1216766710485798 -0.5387782778707112 0.12167667104858064 -0.5387782778707111 0.7907595183169811 0.19483376379505432
32.05 0.8084680848706363 0.10581029985547044 0.11838337034275126 -0.5371352814466419 0.11838337034275104 -0.5371352814466409 0.793247730734652 0.19139384416638464
32.2225 0.8106054183780569 0.10155369464573341 0.11511818560834663 -0.5354795403313319 0.11511818560834738 -0.5354795403313308 0.7957038152338499 0.18794020492965707
32.395 0.8127041282980314 0.09728256404272763 0.11188093652146124 -0.5338113374913646 0.11188093652146197 -0.5338113374913633 0.7981279244910506 0.18447311100959204
32.5675 0.8147643443996083 0.09299719799750447 0.10867144303091891 -0.5321309498318969 0.10867144303091954 -0.5321309498318957 0.8005202107050279 0.18099282144249515
32.74 0.8167861955818662 0.08869788059335786 0.10548952543370649 -0.5304386483055492 0.1054895254337063 -0.5304386483055482 0.8028808255214311 0.17749958948132952
32.9125 0.818769809794981 0.08438489016298725 0.10233500444737703 -0.5287346980201147 0.10233500444737766 -0.5287346980201136 0.8052099199602825 0.17399366269967892
33.085 0.8207153139643486 0.08005849940452815 0.09920770127952966 -0.5270193583450826 0.09920770127953042 -0.5270193583450814 0.8075076443462604 0.1704752830945779
33.2575 0.8226228339176489 0.07571897549643498 0.09610743769444814 -0.5252928830169558 0.09610743769444877 -0.5252928830169545 0.8097741482417006 0.16694468718819577
33.43 0.824492494314787 0.07136658021120303 0.09303403607699855 -0.5235555202433453 0.09303403607699917 -0.5235555202433443 0.8120095803822253 0.16340210612837414
33.6025 0.8263244185805891 0.06700157002791265 0.08998731949387236 -0.5218075128058429 0.08998731949387312 -0.5218075128058418 0.8142140886149088 0.15984776578796642
33.775 0.8281187288401846 0.06262419624359022 0.08696711175225345 -0.5200490981616415 0.0869671117522542 -0.5200490981616402 0.8163878198389006 0.15628188686302755
33.9475 0.8298755458569774 0.05823470508337336 0.08397323745600668 -0.518280508543911 0.08397323745600745 -0.5182805085439098 0.8185309199484256 0.152704684969785
34.12 0.8315949889731303 0.053833337809476745 0.08100552205945952 -0.5165019710609275 0.08100552205946027 -0.5165019710609263 0.8206435337780803 0.149116370740432
34.2925 0.8332771760524689 0.04942033082895273 0.07806379191885383 -0.514713707793929 0.07806379191885461 -0.5147137077939279 0.8227258050503481 0.14551714991771494
34.465 0.8349222234257373 0.0449959158002429 0.07514787434155819 -0.5129159358937196 0.07514787434155906 -0.5129159358937185 0.824777876325262 0.14190722344830617
34.6375 0.8365302458381193 0.04056031973852235 0.07225759763310242 -0.5111088676760117 0.07225759763310331 -0.5111088676760106 0.826799888952138 0.138286787574982
34.81 0.8381013563989491 0.036113765119832976 0.06939279114211654 -0.5092927107154981 0.06939279114211741 -0.509292710715497 0.8287919830233103 0.13465603392758876
34.9825 0.8396356665335448 0.031656469984010796 0.06655328530323873 -0.5074676679386673 0.06655328530323938 -0.5074676679386662 0.8307542973297958 0.13101514961279995
35.155 0.8411332859370885 0.027188648036408653 0.06373891167806384 -0.5056339377153642 0.06373891167806463 -0.5056339377153642 0.8326869693188308 0.1273643173026716
35.3275 0.8425943225304832 0.02271050874841849 0.06094950299420268 -0.5037917139490934 0.060949502994204346 -0.5037917139490922 0.8345901350532 0.1237037153219926
35.5 0.8440188824181172 0.01822225745679973 0.05818489318251291 -0.5019411861660655 0.0581848931825138 -0.5019411861660654 0.836463929172306 0.12003351773444103
35.6725 0.8454070698474777 0.01372409546182035 0.05544491741256076 -0.5000825396030211 0.055444917412562425 -0.5000825396030198 0.8383084848549156 0.11635389442754526
35.845 0.8467589871705431 0.009216220124218083 0.05272941212639165 -0.4982159552937936 0.0527294121263932 -0.49821595529379237 0.8401239337835155 0.1126650111964602
36.0175 0.8480747348068907 0.004698824960988529 0.05003821507064307 -0.4963416101546655 0.050038215070644064 -0.4963416101546654 0.8419104061102296 0.10896702982656255
36.19 0.849354411208475 0.00017209974001516256 0.0473711653270824 -0.49445967706849325 0.04737116532708339 -0.49445967706849314 0.843668030424233 0.10526010817487612
36.3625 0.8505981128259872 -0.004363769426454861 0.0447281033416109 -0.4925703249676261 0.04472810334161167 -0.49257032496762604 0.8453969337206149 0.10154440025033369
36.535 0.8518059340767862 -0.00890859998947151 0.042108870951792325 -0.49067371891562844 0.042108870951793 -0.49067371891562733 0.8470972413706308 0.09782005629288383
36.7075 0.8529779673142907 -0.013462212872173283 0.03951331141295596 -0.48877002018780713 0.039513311412957594 -0.48877002018780696 0.8487690770932971 0.09408722285145636
36.88 0.8541143027988348 -0.018024432379689845 0.03694126942293388 -0.4868593863505744 0.036941269422934665 -0.48685938635057335 0.8504125629282703 0.09034604286079255
37.0525 0.8552150286698919 -0.02259508611014775 0.034392591145463995 -0.484941971339629 0.03439259114546572 -0.4849419713396289 0.8520278192099795 0.08659665571715408
37.225 0.856280230919642 -0.027174004866763246 0.03186712423233197 -0.48301792553700523 0.031867124232333684 -0.4830179255370051 0.8536149645429386 0.0828391973529227
37.3975 0.8573099933678292 -0.03176102257100567 0.02936471784426681 -0.4810873958469663 0.029364717844268518 -0.4810873958469662 0.8551741157782156 0.0790738003101001
37.57 0.8583043976378539 -0.03635597617681947 0.026885222670667907 -0.479150525770783 0.02688522267066881 -0.479150525770782 0.8567053879910033 0.07530059381272311
37.7425 0.8592635231340737 -0.04095870558588637 0.024428490948177742 -0.47720745548039784 0.02442849094817944 -0.4772074554803977 0.8582088944592551 0.07151970383820778
37.915 0.8601874470202481 -0.04556905356391338 0.021994376478162776 -0.47525832189099565 0.021994376478164462 -0.47525832189099554 0.859684746643329 0.06773125318763298
38.0875 0.861076244199096 -0.05018686565792966 0.01958273464313169 -0.47330325873248746 0.019582734643133228 -0.4733032587324864 0.8611330541666219 0.06393536155497874
38.26 0.8619299872929296 -0.054811990114573626 0.0171934224221316 -0.47134239661992894 0.01719342242213324 -0.4713423966199279 0.8625539247971366 0.06013214559533573
38.4325 0.8627487466253209 -0.05944427779935656 0.014826298405162086 -0.46937586312289215 0.01482629840516365 -0.4693758631228921 0.8639474644299509 0.05632171899209573
38.605 0.8635325902037507 -0.06408358211687992 0.012481222806647511 -0.4674037828337944 0.012481222806649173 -0.46740378283379436 0.8653137770705519 0.05250419252314318
38.7775 0.8642815837032302 -0.06872975893199536 0.010158057477990333 -0.4654262774352106 0.010158057477991988 -0.4654262774352106 0.866652964818999 0.04867967412605621
38.95 0.8649957904508337 -0.07338266649188205 0.007856665919250085 -0.46344346576617895 0.00785666591925173 -0.46344346576617895 0.8679651278548841 0.044848268962340204
39.1225 0.8656752714111327 -0.0780421653490285 0.005576913289981259 -0.4614554638875216 0.005576913289983809 -0.46145546388752057 0.8692503644230436 0.04101007948070169
39.295 0.8663200851724661 -0.08270811828509728 0.0033186664192545582 -0.45946238514618537 0.0033186664192560882 -0.45946238514618537 0.8705087708200083 0.037165205479382436
39.4675 0.8669302879340569 -0.08738039023565501 0.0010817938148899745 -0.45746434023863713 0.0010817938148915997 -0.45746434023863713 0.8717404413811469 0.03331374416756888
39.64 0.867505933493908 -0.09205884821574822 -0.001133834328051132 -0.4554614372733114 -0.001133834328048806 -0.4554614372733114 0.8729454684684788 0.029455790225891947
39.8125 0.868047073237466 -0.09674336124630616 -0.003328346119508018 -0.4534537818321339 -0.0033283461195056014 -0.453453781832134 0.874123942459115 0.025591435866033338
39.985 0.868553756127025 -0.10143380028135289 -0.005501867967360081 -0.4514414770311433 -0.005501867967357774 -0.45144147703114335 0.8752759517343214 0.02172077088945328
40.1575 0.8690260286918405 -0.10613003813600609 -0.00765452457103465 -0.4494246235802199 -0.0076545245710330535 -0.4494246235802199 0.876401582669159 0.017843882745259183
40.33 0.869463935018922 -0.11083194941524507 -0.009786438915766152 -0.4474033198419409 -0.009786438915763867 -0.447403319841941 0.8775009196226706 0.013960856587227123
40.5025 0.8698675167444851 -0.11553941044343113 -0.01189773226746865 -0.4453776618895754 -0.011897732267467168 -0.44537766188957545 0.8785740449286131 0.010071775329993747
40.675 0.8702368130460475 -0.12025229919455496 -0.01398852416822002 -0.44334774356424356 -0.013988524168218577 -0.44334774356424467 0.8796210388866799 0.006176719704438424
40.8475 0.8705718606351303 -0.1249704952231977 -0.016058932432313267 -0.44131365653124616 -0.0160589324323117 -0.44131365653124627 0.8806419797542184 0.002275768312264807
41.02 0.870872693750544 -0.1296938795961798 -0.018109073142865334 -0.4392754903355874 -0.018109073142862992 -0.4392754903355875 0.8816369437383901 -0.0016310023201948343
41.1925 0.8711393441522584 -0.13442233482488547 -0.020139060648961375 -0.4372333324567089 -0.020139060648959047 -0.43723333245670903 0.8826060049887766 -0.005543517688940848
41.365 0.8713718411158103 -0.13915574479823775 -0.022149007563314605 -0.4351872683624436 -0.022149007563313155 -0.43518726836244365 0.8835492355904021 -0.009461705260015683
41.5375 0.8715702114272463 -0.1438939947163031 -0.02413902476042095 -0.43313738156221127 -0.024139024760418834 -0.4331373815622113 0.884466705557137 -0.013385494417942755
41.71 0.8717344793785768 -0.14863697102451487 -0.026109221375188087 -0.43108375365947477 -0.026109221375185884 -0.43108375365947493 0.8853584828254883 -0.017314816414884145
41.8825 0.8718646667637279 -0.15338456134848505 -0.028059704802031363 -0.4290264644034636 -0.028059704802029174 -0.42902646440346376 0.886224633248732 -0.02124960432049343
42.055 0.8719607928749641 -0.15813665442939293 -0.02999058069440771 -0.4269655917401868 -0.029990580694405602 -0.426965591740188 0.887065220591393 -0.025189792972455535
42.2275 0.8720228744997812 -0.1628931400599283 -0.0319019529647798 -0.42490121186275565 -0.031901952964777526 -0.4249012118627568 0.8878803065240283 -0.029135318927689984
42.4 0.8720509259182448 -0.1676539090207685 -0.03379392378499063 -0.42283339926101754 -0.03379392378498856 -0.4228333992610187 0.8886699506183212 -0.0330861204142078
42.5725 0.8720449589007603 -0.1724188530175696 -0.03566659358704052 -0.42076222677053315 -0.03566659358703835 -0.4207622267705344 0.8894342103424568 -0.037042137283602304
42.745 0.8720049827062673 -0.17718786461846564 -0.037520061064243035 -0.41868776562089843 -0.03752006106424098 -0.4186877656208996 0.8901731410567579 -0.041003310964157214
42.9175 0.8719310040808343 -0.18196083719202794 -0.03935442317275368 -0.4166100854834385 -0.03935442317275238 -0.4166100854834396 0.8908867960095795 -0.04496958441456239
43.09 0.8718230272566636 -0.18673766484569335 -0.04116977513346185 -0.4145292545182761 -0.04116977513345974 -0.4145292545182773 0.8915752263334348 -0.04894090207821044
43.2625 0.871681053951461 -0.19151824236463952 -0.04296621043421924 -0.41244533942080325 -0.04296621043421715 -0.41244533942080447 0.8922384810413496 -0.05291720983807202
43.435 0.871505083368202 -0.1963024651510606 -0.04474382083241522 -0.4103584054675559 -0.044743820832413135 -0.41035840546755714 0.8928766070234201 -0.05689845497212137
43.6075 0.8712951121952454 -0.20109022916386304 -0.04650269635786895 -0.4082685165615214 -0.046502696357866684 -0.40826851656152163 0.8934896490435629 -0.06088458610930467
43.78 0.8710511346068123 -0.20588143085873992 -0.048242925316039194 -0.4061757352768794 -0.04824292531603733 -0.40617573527688067 0.8940776497364584 -0.06487555318603527
43.9525 0.8707731422638101 -0.21067596712860368 -0.049964594291539814 -0.4040801229032034 -0.049964594291537656 -0.40408012290320366 0.894640649604651 -0.06887130740319372
44.125 0.8704611243149962 -0.2154737352443738 -0.051667788151948495 -0.40198173948912125 -0.05166778815194719 -0.40198173948912247 0.8951786870158164 -0.07287180118362772
44.2975 0.8701150673984774 -0.22027463279608664 -0.05335259005190849 -0.3998806438854679 -0.0533525900519072 -0.39988064388546907 0.8956917982001737 -0.07687698813012625
44.47 0.8697349556435331 -0.22507855763431722 -0.05501908143750314 -0.39777689378792647 -0.055019081437501866 -0.3977768937879277 0.8961800172480338 -0.08088682298386018
44.6425 0.8693207706727576 -0.229885407811894 -0.056667342050909245 -0.3956705457791811 -0.05666734205090798 -0.3956705457791823 0.8966433761074699 -0.08490126158327332
44.815 0.8688724916045243 -0.23469508152588545 -0.05829744993531209 -0.39356165537059223 -0.058297449935310684 -0.39356165537059246 0.897081904582111 -0.08892026082340247
44.9875 0.8683900950557585 -0.23950747705984443 -0.059909481440080826 -0.39145027704340535 -0.059909481440079494 -0.39145027704340657 0.8974956303290339 -0.09294377861562263
45.16 0.8678735551450157 -0.24432249272628426 -0.0615035112261966 -0.3893364642895122 -0.06150351122619476 -0.3893364642895135 0.8978845788567578 -0.09697177384779174
45.3325 0.8673228434958676 -0.24914002680938943 -0.06307961227192903 -0.3872202696517713 -0.06307961227192764 -0.38722026965177253 0.8982487735233292 -0.10100420634478903
45.505 0.866737929240584 -0.25395997750791205 -0.06463785587875513 -0.3851017447638963 -0.06463785587875324 -0.38510174476389764 0.8985882355344756 -0.10504103682942419
45.6775 0.8661187790241236 -0.2587822428782702 -0.06617831167751158 -0.38298094038994274 -0.0661783116775104 -0.38298094038994396 0.8989029839418501 -0.10908222688371216
45.85 0.8654653570084138 -0.263606720777805 -0.06770104763478965 -0.38085790646337825 -0.06770104763478982 -0.3808579064633792 0.8991930356413208 -0.11312773891049126
46.0225 0.8647776248769304 -0.2684333088081905 -0.0692061300595604 -0.37873269212577404 -0.06920613005956058 -0.37873269212577504 0.8994584053713338 -0.11717753609537213
46.195 0.8640555418395746 -0.27326190425898705 -0.07069362360999634 -0.3766053457651167 -0.07069362360999652 -0.37660534576511767 0.8996991057113201 -0.12123158236900888
46.3675 0.863299064637845 -0.27809240405129604 -0.07216359130057347 -0.3744759150537408 -0.07216359130057365 -0.3744759150537417 0.8999151470801457 -0.12528984236966906
46.54 0.8625081475503091 -0.2829247046815407 -0.07361609450934659 -0.37234444698592195 -0.07361609450934659 -0.37234444698592195 0.9001065377346062 -0.12935228140609725
46.7125 0.8616827423983705 -0.2877587021653058 -0.07505119298546192 -0.37021098791511403 -0.07505119298545551 -0.3702109879151153 0.9002732837679447 -0.1334188654206505
46.885 0.8608227985523347 -0.2925942919812694 -0.07646894485686538 -0.3680755835908624 -0.076468944856859 -0.36807558359086373 0.9004153891084092 -0.13748956095269993
47.0575 0.8599282629377839 -0.29743136901516837 -0.07786940663827627 -0.36593827919537797 -0.07786940663827648 -0.3659382791953789 0.9005328555178194 -0.141564335102276
47.23 0.858999080042247 -0.30226982750381726 -0.07925263323933217 -0.36379911937981485 -0.07925263323932587 -0.36379911937981624 0.9006256825901621 -0.14564315549395207
47.4025 0.8580351919221891 -0.3071095609791411 -0.08061867797293469 -0.3616581483002342 -0.08061867797293491 -0.3616581483002351 0.9006938677501904 -0.14972599024094535
47.575 0.8570365382103021 -0.3119504622122115 -0.08196759256387119 -0.3595154096532792 -0.08196759256387119 -0.3595154096532792 0.9007374062520389 -0.15381280790942686
47.7475 0.856003056123121 -0.31679242315727585 -0.08329942715757917 -0.35737094671156555 -0.08329942715757917 -0.35737094671156555 0.9007562911778384 -0.1579035774830246
47.92 0.8549346804689545 -0.32163533489576757 -0.08461423032916608 -0.3552248023587996 -0.08461423032915992 -0.35522480235880105 0.9007505134363355 -0.16199826832750866
48.0925 0.8538313436561454 -0.3264790875802689 -0.0859120490926288 -0.3530770191246285 -0.08591204909262284 -0.35307701912463096 0.9007200617615091 -0.16609685015563666
48.265 0.8526929757016677 -0.33132357037841886 -0.08719292891029048 -0.35092763921923836 -0.08719292891029048 -0.35092763921923836 0.9006649227111815 -0.17019929299216596
48.4375 0.851519504240053 -0.3361686714167563 -0.08845691370244914 -0.34877670456769916 -0.08845691370244914 -0.34877670456769916 0.9005850806656187 -0.17430556713899142
48.61 0.8503108545326686 -0.34101427772447845 -0.08970404585725357 -0.3466242568440781 -0.08970404585725382 -0.3466242568440791 0.9004805178261317 -0.1784156431404205
48.7825 0.8490669494773532 -0.3458602751771022 -0.09093436624076084 -0.34447033750532463 -0.09093436624076111 -0.3444703375053256 0.9003512142136507 -0.18252949174855643
48.955 0.8477877096184013 -0.3507065484400018 -0.09214791420728281 -0.3423149878249174 -0.09214791420728281 -0.3423149878249174 0.9001971476672949 -0.18664708388879278
49.1275 0.8464730531569308 -0.355552980911842 -0.09334472760986982 -0.34015824892631713 -0.09334472760987009 -0.34015824892631813 0.9000182938429238 -0.19076839062538434
49.3 0.8451228959616196 -0.3603994546678519 -0.09452484281110113 -0.33800016181620074 -0.09452484281110113 -0.33800016181620074 0.8998146262116734 -0.19489338312709403
49.4725 0.8437371515798342 -0.3652458504029545 -0.0956882946940294 -0.33584076741749663 -0.0956882946940294 -0.33584076741749663 0.8995861160584647 -0.1990220326329217
49.645 0.8423157312491545 -0.3700920473747195 -0.0968351166734152 -0.33368010660223457 -0.0968351166734152 -0.33368010660223457 0.8993327324805114 -0.20315431041784893
49.8175 0.8408585439093074 -0.374937923346162 -0.09796534070715134 -0.33151822022419997 -0.09796534070715134 -0.33151822022419997 0.8990544423857857 -0.20729018775865823
49.99 0.8393654962145198 -0.3797833545283133 -0.0990789973079546 -0.32935514915141945 -0.0990789973079543 -0.32935514915141845 0.8987512104914822 -0.21142963589974798
50.1625 0.8378364925463032 -0.3846282155226121 -0.10017611555526239 -0.32719093429846635 -0.10017611555526239 -0.32719093429846635 0.8984229993224508 -0.2155726260189722
50.335 0.8362714350266773 -0.3894723792630691 -0.10125672310742972 -0.32502561665860136 -0.10125672310742972 -0.32502561665860136 0.8980697692096129 -0.21971912919347658
50.5075 0.8346702235318514 -0.39431571695820083 -0.10232084621409399 -0.3228592373357627 -0.10232084621409399 -0.3228592373357627 0.8976914782883608 -0.22386911636552484
50.68 0.8330327557063778 -0.39915809803272523 -0.10336850972887789 -0.320691837576383 -0.10336850972887789 -0.320691837576383 0.897288082496931 -0.22802255830829413
50.8525 0.831358926977776 -0.40399939006900004 -0.10439973712226969 -0.3185234588010777 -0.10439973712226937 -0.31852345880107674 0.8968595355747656 -0.23217942559163346
51.025 0.8296486305716642 -0.40883945874819677 -0.1054145504948372 -0.3163541426361663 -0.1054145504948372 -0.3163541426361663 0.8964057890608528 -0.23633968854777543
51.1975 0.8279017575273945 -0.413678167791204 -0.1064129705906347 -0.3141839309450868 -0.10641297059063438 -0.31418393094508584 0.8959267922920552 -0.24050331723697616
51.37 0.8261181967142153 -0.41851537889923507 -0.10739501681095387 -0.3120128658596354 -0.10739501681095355 -0.31201286585963445 0.8954224924014196 -0.2446702814130902
51.5425 0.8242978348479709 -0.423350951694148 -0.10836070722827507 -0.30984098981111885 -0.10836070722827473 -0.3098409898111179 0.8948928343164785 -0.24884055048904777
51.715 0.822440556508371 -0.4281847436584448 -0.10931005860057462 -0.3076683455613428 -0.10931005860057429 -0.30766834556134187 0.89433776075754 -0.25301409350224346
51.8875 0.8205462441568131 -0.4330166100749696 -0.11024308638585328 -0.3054949762335086 -0.1102430863858526 -0.3054949762335067 0.8937572122359673 -0.2571908790797978
52.06 0.8186147781548152 -0.4378464039662649 -0.11115980475698513 -0.3033209253429813 -0.11115980475698478 -0.30332092534298033 0.8931511270524585 -0.2613708754037039
52.2325 0.8166460367830486 -0.44267397603359404 -0.11206022661688057 -0.30114623682793645 -0.11206022661688511 -0.3011462368279326 0.8925194412953186 -0.2655540501758388
52.405 0.8146398962609995 -0.4474991745956267 -0.11294436361392134 -0.2989709550799056 -0.11294436361392596 -0.2989709550799018 0.8918620888387357 -0.2697403705828166
52.5775 0.8125962307672719 -0.45232184552675836 -0.11381222615771434 -0.2967951249742173 -0.11381222615771398 -0.29679512497421634 0.8911790013410608 -0.27392980326068705
52.75 0.8105149124605667 -0.4571418321950735 -0.11466382343515313 -0.2946187919003315 -0.11466382343515241 -0.29461879190032964 0.8904701082430939 -0.2781223142594595
52.9225 0.8083958115013371 -0.46195897539993414 -0.1154991634268342 -0.29244200179205915 -0.11549916342683346 -0.2924420017920573 0.8897353367663839 -0.2823178690074397
53.095 0.8062387960741515 -0.4667731133091895 -0.11631825292375507 -0.2902648011577019 -0.11631825292375432 -0.29026480115770004 0.88897461191154 -0.28651643227536466
53.2675 0.8040437324107902 -0.4715840813960083 -0.11712109754437483 -0.2880872371100893 -0.11712109754437408 -0.2880872371100875 0.8881878564565712 -0.2907179681403411
53.44 0.8018104848140777 -0.4763917123753046 -0.11790770175198717 -0.2859093573965188 -0.11790770175198641 -0.28590935739651696 0.8873749909552406 -0.294922439949542
53.6125 0.7995389156825045 -0.4811958361397764 -0.1186780688724864 -0.28373121042859856 -0.11867806887248562 -0.28373121042859667 0.8865359337354553 -0.2991298102836888
53.785 0.797228885535623 -0.48599627969552994 -0.1194322011124279 -0.28155284531201696 -0.11943220111242712 -0.28155284531201513 0.8856706008976957 -0.30334004092027034
53.9575 0.7948802530402777 -0.4907928670973014 -0.12017009957748506 -0.2793743118762072 -0.12017009957748388 -0.27937431187620443 0.8847789063134687 -0.30755309279651233
54.13 0.7924928750376676 -0.4955854193832567 -0.12089176429126942 -0.27719566070392787 -0.12089176429126823 -0.2771956607039251 0.8838607616238304 -0.3117689259720729
54.3025 0.7900666065712747 -0.5003737545093726 -0.12159719421450299 -0.27501694316076325 -0.12159719421450178 -0.2750169431607605 0.882916076237936 -0.31598749959146166
54.475 0.7876013009156898 -0.5051576872833948 -0.1222863872645805 -0.2728382114245428 -0.12228638726457929 -0.27283821142454 0.881944757331672 -0.3202087718461525
54.6475 0.7850968096063469 -0.509937029298369 -0.1229593403355322 -0.2706595185146576 -0.12295934033553094 -0.2706595185146548 0.8809467098463313 -0.32443269993640045
54.82 0.782552982470208 -0.5147115888657331 -0.1236160493183413 -0.26848091832132087 -0.12361604931834429 -0.2684809183213151 0.879921836487376 -0.3286592400327318
54.9925 0.7799696676574166 -0.519481170947981 -0.12425650912170023 -0.2663024656347238 -0.12425650912169896 -0.2663024656347211 0.8788700377232732 -0.33288834723710853
55.165 0.7773467116739479 -0.5242455770908974 -0.12488071369313641 -0.26412421617413645 -0.1248807136931347 -0.2641242161741328 0.8777912117844161 -0.3371199755437478
55.3375 0.7746839594152819 -0.5290046053553408 -0.12548865604057816 -0.2619462266169005 -0.12548865604057644 -0.26194622661689687 0.8766852546621422 -0.341354077799586
55.51 0.7719812542011428 -0.5337580502485932 -0.12608032825431334 -0.25976855462737375 -0.1260803282543161 -0.259768554627368 0.875552060107851 -0.34559060566437316
55.6825 0.7692384378113069 -0.5385057026552843 -0.12665572152939836 -0.2575912588857701 -0.12665572152940105 -0.25759125888576434 0.874391519632234 -0.3498295095703978
55.855 0.7664553505225427 -0.5432473497678574 -0.12721482618847726 -0.2554143991169455 -0.12721482618847504 -0.255414399116941 0.8732035225046263 -0.3540707386818076
56.0275 0.7636318311466767 -0.5479827750166104 -0.12775763170503449 -0.25323803611910134 -0.12775763170503224 -0.2532380361190969 0.8719879557524824 -0.3583142408535334
56.2 0.7607677170698564 -0.5527117579993032 -0.128284126727115 -0.25106223179241016 -0.12828412672711273 -0.2510622317924057 0.8707447041609905 -0.3625599625898057
56.3725 0.7578628442930055 -0.5574340744103239 -0.12879429910148754 -0.24888704916756793 -0.12879429910148524 -0.24888704916756352 0.8694736502728414 -0.36680784900223123
56.545 0.7549170474735236 -0.5621494959694324 -0.12928813589822863 -0.2467125524342971 -0.1292881358982263 -0.24671255243429266 0.868174674388142 -0.3710578437674351
56.7175 0.7519301599682686 -0.5668577903500824 -0.12976562343582354 -0.24453880696975105 -0.12976562343582118 -0.24453880696974664 0.8668476545645142 -0.375309889084257
56.89 0.748902013877837 -0.5715587211073067 -0.13022674730669315 -0.24236587936687568 -0.13022674730669123 -0.24236587936687212 0.8654924666173555 -0.3795639256304776
57.0625 0.7458324400921875 -0.5762520476052087 -0.130671492403215 -0.24019383746270012 -0.13067149240321307 -0.24019383746269662 0.8641089841203012 -0.3838198925190794
57.235 0.74272126833765 -0.5809375249440308 -0.1310998429442224 -0.2380227503665623 -0.13109984294421997 -0.23802275036655796 0.8626970784058848 -0.38807772725401063
57.4075 0.7395683272253378 -0.585614903886827 -0.13151178250196788 -0.23585268848829471 -0.13151178250196954 -0.23585268848828808 0.8612566185664129 -0.39233736568545696
57.58 0.7363734443010129 -0.5902839307857413 -0.13190729402962653 -0.23368372356633121 -0.1319072940296281 -0.23368372356632458 0.8597874714550627 -0.39659874196460587
57.7525 0.7331364460964374 -0.5949443475079074 -0.1322863598892336 -0.23151592869580043 -0.1322863598892316 -0.23151592869579696 0.8582895016872255 -0.40086178849788023
57.925 0.7298571581822498 -0.599595891360965 -0.1326489618801671 -0.22934937835655536 -0.1326489618801646 -0.22934937835655106 0.8567625716420948 -0.4051264359006479
58.0975 0.7265354052223982 -0.6042382950182265 -0.1329950812681305 -0.22718414844116983 -0.1329950812681319 -0.22718414844116322 0.8552065414645227 -0.4093926129503871
58.27 0.7231710110301772 -0.608871286443482 -0.13332469881465214 -0.22502031628291183 -0.1333246988146496 -0.22502031628290753 0.8536212690671583 -0.41366024653927796
58.4425 0.7197637986259082 -0.6134945888154735 -0.13363779480706472 -0.22285796068371608 -0.13363779480706267 -0.22285796068371266 0.8520066101328764 -0.4179292616262539
58.615 0.7163135902962838 -0.6181079204520479 -0.13393434908908075 -0.22069716194211153 -0.13393434908907811 -0.2206971619421072 0.8503624181175152 -0.4221995811884458
58.7875 0.7128202076554516 -0.6227109947339993 -0.13421434109182404 -0.21853800188118702 -0.13421434109182195 -0.21853800188118364 0.848688544252942 -0.42647112617205557
58.96 0.7092834717078441 -0.6273035200286224 -0.13447774986544445 -0.21638056387655927 -0.13447774986544234 -0.21638056387655585 0.8469848375504531 -0.43074381544261503
59.1325 0.7057032029128182 -0.6318851996129959 -0.13472455411125744 -0.21422493288436759 -0.13472455411125478 -0.21422493288436337 0.845251144804534 -0.43501756573463773
59.305 0.702079221251134 -0.6364557315970033 -0.134954732214424 -0.21207119546932598 -0.13495473221442134 -0.21207119546932177 0.8434873105969926 -0.43929229160064465
59.4775 0.6984113462933259 -0.6410148088461372 -0.13516826227718604 -0.20991943983284395 -0.13516826227718387 -0.2099194398328406 0.8416931773014772 -0.44356790535954926
59.65 0.6946993972699971 -0.6455621189040756 -0.1353651221526793 -0.20776975584121948 -0.13536512215267713 -0.20776975584121612 0.8398685850884106 -0.4478443170444022
59.8225 0.6909431931440925 -0.6500973439150816 -0.13554528947927488 -0.20562223505396585 -0.1355452894792768 -0.20562223505396102 0.8380133719303425 -0.45212143434947677
59.995 0.6871425526851931 -0.6546201605462307 -0.135708741715534 -0.20347697075225996 -0.13570874171553177 -0.20347697075225663 0.8361273736077518 -0.4563991625766822
60.1675 0.6832972945458604 -0.6591302399095086 -0.13585545617570502 -0.20133405796757106 -0.13585545617570333 -0.2013340579675686 0.8342104237153116 -0.4606774045813021
60.34 0.6794072373400989 -0.6636272474837954 -0.1359854100658448 -0.19919359351048524 -0.1359854100658431 -0.19919359351048277 0.8322623536686364 -0.4649560607170412
60.5125 0.6754721997239683 -0.6681108430367649 -0.1360985805205095 -0.19705567599977517 -0.1360985805205078 -0.1970556759997727 0.8302829927115345 -0.4692350287803709
60.685 0.6714920004783962 -0.6725806805467384 -0.13619494464007076 -0.19492040589175252 -0.13619494464007298 -0.19492040589174853 0.8282721679237878 -0.4735142039541692
60.8575 0.6674664585942343 -0.6770364081245166 -0.13627447952866079 -0.1927878855099385 -0.13627447952865965 -0.19278788550993686 0.8262297042294762 -0.47779347875063444
61.03 0.6633953933596034 -0.6814776679352301 -0.13633716233272325 -0.1906582190751369 -0.13633716233272267 -0.19065821907513608 0.824155424405872 -0.48207274295347124
61.2025 0.6592786244495835 -0.68590409612024 -0.13638297028024202 -0.18853151273593133 -0.13638297028024143 -0.18853151273593052 0.8220491490929227 -0.4863518835593413
61.375 0.6551159720182892 -0.6903153227191193 -0.13641188072062854 -0.18640787459968688 -0.13641188072063118 -0.18640787459968372 0.8199106968033576 -0.49063078471855687
61.5475 0.650907256793371 -0.6947109715917754 -0.13642387116530738 -0.1842874147641264 -0.13642387116530738 -0.1842874147641264 0.817739883933418 -0.49490932767502205
61.72 0.6466523001730101 -0.699090660340731 -0.13641891932897882 -0.18217024534958673 -0.13641891932897882 -0.18217024534958673 0.8155365247742691 -0.4991873907054019
61.8925 0.6423509243254358 -0.7034540002336189 -0.1363970031716796 -0.18005648053197043 -0.1363970031716796 -0.18005648053197043 0.813300431524085 -0.5034648490575205
62.065 0.6380029522910181 -0.7078005961259317 -0.13635810094155795 -0.17794623657658826 -0.13635810094155856 -0.17794623657658906 0.8110314143008602 -0.5077415748879693
62.2375 0.6336082080869977 -0.7121300463840784 -0.1363021912184936 -0.1758396318729188 -0.13630219121849482 -0.17583963187292037 0.8087292811559511 -0.5120174371989255
62.41 0.6291665168148797 -0.716441942808793 -0.13622925295854407 -0.17373678697045536 -0.1362292529585453 -0.1737367869704569 0.8063938380883976 -0.516292301774163
62.5825 0.6246777047705555 -0.7207358705589411 -0.1361392655393143 -0.1716378246157339 -0.1361392655393168 -0.17163782461573707 0.8040248890600302 -0.5205660311142707
62.755 0.6201415995571944 -0.7250114080757902 -0.13603220880625497 -0.1695428697907442 -0.1360322088062575 -0.1695428697907473 0.8016222360114125 -0.5248384843710306
62.9275 0.6155580302009626 -0.7292681270077863 -0.13590806312000306 -0.1674520497528155 -0.1359080631200062 -0.16745204975281938 0.7991856788786244 -0.5291095172809976
63.1 0.6109268272695987 -0.7335055921359018 -0.13576680940481506 -0.16536549407621953 -0.13576680940481886 -0.16536549407622417 0.7967150156109453 -0.533378982098231
63.2725 0.6062478229939198 -0.7377233612996202 -0.1356084291981883 -0.16328333469564854 -0.13560842919819213 -0.16328333469565315 0.7942100421894418 -0.5376467275262008
63.445 0.601520851392281 -0.7419209853236007 -0.13543290470177174 -0.16120570595181363 -0.13543290470177624 -0.161205705951819 0.7916705526465061 -0.5419125986488444
63.6175 0.596745748398055 -0.7460980079451124 -0.1352402188337047 -0.1591327446393816 -0.13524021883370987 -0.15913274463938767 0.7890963390863703 -0.5461764368607869
63.79 0.5919223519901684 -0.7502539657422883 -0.135030355282484 -0.15706459005754436 -0.13503035528249321 -0.15706459005754958 0.7864871917066392 -0.5504380797966955
63.9625 0.5870505023267474 -0.7543883880632706 -0.13480329856257828 -0.15500138406348637 -0.1348032985625855 -0.15500138406349467 0.7838428988208618 -0.554697361259793
64.135 0.5821300418819167 -0.7585007969563291 -0.1345590340719076 -0.15294327112911935 -0.1345590340719182 -0.15294327112912603 0.7811632468821879 -0.5589541111494941
64.3075 0.5771608155857995 -0.762590707101022 -0.1342975481514945 -0.150890398401382 -0.13429754815150574 -0.15089039840138938 0.7784480205081439 -0.563208155388192
64.48 0.5721426709677551 -0.766657625740474 -0.13401882814745117 -0.1488429157665746 -0.13401882814746052 -0.148842915766585 0.7756970025065499 -0.5674593158471698
64.6525 0.567075458302921 -0.7707010526148559 -0.13372286247566487 -0.14680097591910957 -0.13372286247567752 -0.14680097591911834 0.7729099739026444 -0.5717074102716454
64.825 0.5619590307620748 -0.7747204798961526 -0.13340964068951203 -0.14476473443517615 -0.13340964068952604 -0.14476473443518634 0.7700867139674137 -0.5759522522049452
64.9975 0.5567932445648811 -0.7787153921242983 -0.1330791535509568 -0.14273434985189506 -0.13307915355097158 -0.14273434985190595 0.7672270002472146 -0.5801936509118054
65.17 0.5515779591365575 -0.7826852661447707 -0.13273139310558155 -0.14070998375246002 -0.13273139310559634 -0.14070998375247082 0.7643306085946799 -0.5844314113008013
65.3425 0.5463130372679958 -0.7866295710477437 -0.13236635276199368 -0.13869180085802194 -0.13236635276200992 -0.13869180085803415 0.7613973132009836 -0.5886653338459039
65.515 0.5409983452793892 -0.7905477681088814 -0.13198402737633136 -0.13667996912693212 -0.131984027376349 -0.13667996912694566 0.7584268866294948 -0.5928952145071648
65.6875 0.5356337531873946 -0.7944393107318766 -0.1315844133425317 -0.13467465986218763 -0.13158441334254944 -0.13467465986220112 0.7554190998508536 -0.5971208446505357
65.86 0.5302191348758691 -0.7983036443928458 -0.13116750868923957 -0.13267604782791564 -0.13116750868926103 -0.1326760478279282 0.7523737222795288 -0.6013420109668164
66.0325 0.5247543682702305 -0.8021402065866634 -0.13073331318437023 -0.1306843113758362 -0.1307333131843925 -0.13068431137584927 0.7492905218118951 -0.6055584953897385
66.205 0.5192393355154433 -0.8059484267753582 -0.13028182844843925 -0.12869963258275577 -0.1302818284484622 -0.12869963258276954 0.7461692648658615 -0.6097700750131988
66.3775 0.5136739231577075 -0.8097277263386843 -0.12981305807806223 -0.12672219740019833 -0.12981305807808666 -0.1267221974002134 0.7430097164221287 -0.6139765220076263
66.55 0.5080580223298348 -0.813477518526972 -0.1293270077811671 -0.12475219581742332 -0.12932700778119452 -0.12475219581743667 0.7398116400670827 -0.6181776035355141
66.7225 0.5023915289403815 -0.8171972084163753 -0.1288236855257845 -0.12278982203916487 -0.12882368552581264 -0.12278982203917882 0.7365747980374004 -0.6223730816661007
66.895 0.4966743438665339 -0.8208861928666437 -0.12830310170454243 -0.12083527467957106 -0.12830310170457138 -0.12083527467958552 0.7332989512664175 -0.6265627132892253
67.0675 0.49090637315079005 -0.8245438604815417 -0.12776526931744886 -0.1188887569738615 -0.1277652693174778 -0.11888875697387588 0.7299838594322827 -0.6307462500283573
67.24 0.48508752820144746 -0.8281695915720356 -0.12721020417582954 -0.11695047700947639 -0.12721020417586199 -0.11695047700948984 0.7266292810079724 -0.6349234381528187
67.4125 0.4792177259969344 -0.8317627581223824 -0.12663792513097646 -0.11502064797845171 -0.12663792513100966 -0.11502064797846574 0.7232349733132118 -0.6390940184891928
67.585 0.4732968892939684 -0.835322723759261 -0.1260484543314821 -0.11309948845298538 -0.12604845433151532 -0.11309948845299926 0.7198006925683561 -0.6432577263319623
67.7575 0.46732494683960285 -0.8388488437240669 -0.12544181751408218 -0.11118722268619244 -0.1254418175141181 -0.11118722268620469 0.7163261939502659 -0.6474142913533613
67.93 0.4613018335871237 -0.8423404648485356 -0.12481804433357406 -0.10928408094013217 -0.12481804433360909 -0.10928408094014376 0.7128112316502734 -0.6515634375124694
68.1025 0.45522749091584097 -0.8457969255338114 -0.12417716873837778 -0.10739029984324766 -0.12417716873841364 -0.10739029984325969 0.7092555589342472 -0.6557048829635743
68.275 0.44910186685476594 -0.8492175557331252 -0.12351922939950097 -0.10550612277930506 -0.12351922939953605 -0.10550612277931633 0.7056589282048459 -0.6598383399637958
68.4475 0.44292491631016856 -0.8526016769382391 -0.12284427020195224 -0.10363180030986696 -0.12284427020198761 -0.10363180030987468 0.7020210910659962 -0.663963514780023
68.62 0.43669660129703397 -0.8559486021697847 -0.12215234080934384 -0.10176759063212153 -0.12215234080937734 -0.10176759063213131 0.6983417983896769 -0.6680801075951541
68.7925 0.43041689117437304 -0.8592576359716887 -0.12144349731425431 -0.09991376007354096 -0.12144349731428788 -0.09991376007354733 0.6946208003850433 -0.6721878124136854
68.965 0.4240857628844315 -0.8625280744098153 -0.12071780298918683 -0.09807058362430991 -0.1207178029892163 -0.09807058362431641 0.6908578466699589 -0.6762863169666692
69.1375 0.41770320119572585 -0.8657592050750105 -0.11997532915556428 -0.096238345507661 -0.11997532915559142 -0.09623834550766554 0.6870526863450198 -0.6803753026160482
69.31 0.411269198949935 -0.8689503070907051 -0.11921615619131133 -0.09441733978706122 -0.11921615619133603 -0.09441733978706382 0.6832050680700821 -0.6844544442584315
69.4825 0.4047837573125896 -0.8721006511252493 -0.11844037470114516 -0.09260787100754689 -0.11844037470116499 -0.09260787100754918 0.6793147401434211 -0.6885234102282939
69.655 0.3982468860275482 -0.875209499409161 -0.11764808687791174 -0.09081025486621218 -0.11764808687792674 -0.09081025486621401 0.6753814505835093 -0.6925818622006866
69.8275 0.3916586036752265 -0.8782761057574497 -0.11683940808823755 -0.08902481890364868 -0.11683940808824464 -0.0890248189036509 0.6714049472135614 -0.6966294550934353
70.0 0.3850189379345226 -0.8812997155972133 -0.1160144687212904 -0.0872519032039371 -0.1160144687212904 -0.0872519032039371 0.6673849777488333 -0.7006658369689094
